2392 4629 0 0 0
1 7.519777 9.272513 6.239646
2 7.777466 9.142055 5.961597
3 8.047871 9.005160 5.669828
4 8.320410 8.867184 5.375756
5 7.223514 9.310125 6.510454
6 8.673665 8.495360 4.910679
7 6.900225 9.351169 6.805966
8 6.604377 9.388729 7.076395
9 8.955972 8.198212 4.539007
10 8.287306 8.415867 5.207950
11 7.653080 8.690332 5.872014
12 7.346369 8.844282 6.202380
13 7.956703 8.519471 5.536946
14 9.088958 7.923136 4.305181
15 6.260005 9.324929 7.344428
16 7.015941 8.938259 6.527040
17 8.459118 8.089958 4.918673
18 9.239736 7.611260 4.040073
19 5.935289 9.264770 7.597161
20 6.664559 8.872553 6.800265
21 6.328783 8.926090 7.111934
22 8.598914 7.767780 4.658518
23 7.597372 8.232567 5.720816
24 7.265870 8.398513 6.077692
25 7.948094 8.051642 5.340921
26 5.631730 9.208531 7.833427
27 9.386527 7.307630 3.781975
28 8.848931 7.575092 4.360000
29 6.933272 8.543701 6.426483
30 5.988929 8.835433 7.364408
31 8.168051 7.727766 5.011178
32 8.994321 7.182160 4.064275
33 6.337784 8.513791 6.924930
34 5.280090 9.039644 8.062009
35 9.460175 6.915730 3.548315
36 5.695054 8.811087 7.606225
37 6.578518 8.340167 6.642674
38 7.513635 7.820614 5.613613
39 7.179837 7.972022 5.966139
40 6.864065 8.125417 6.304048
41 8.610242 7.234322 4.416833
42 8.296963 7.333313 4.728944
43 7.770524 7.587092 5.291438
44 6.026721 8.458734 7.168155
45 5.423789 8.753199 7.814038
46 4.960076 8.885947 8.270031
47 9.088252 6.771174 3.804897
48 5.687812 8.426973 7.445427
49 9.398599 6.517587 3.428083
50 7.937903 7.253413 5.002591
51 6.207605 8.103878 6.858501
52 5.139389 8.623001 8.001691
53 8.707288 6.811251 4.149524
54 6.505605 7.921038 6.523054
55 7.127960 7.594595 5.846585
56 6.804193 7.749478 6.192006
57 7.391018 7.411167 5.540892
58 4.662951 8.743242 8.463176
59 9.585021 6.251397 3.152226
60 5.369008 8.383957 7.700536
61 8.359424 6.862894 4.470753
62 5.853477 8.115856 7.167862
63 7.594735 7.156440 5.255165
64 8.054181 6.889739 4.744592
65 4.851167 8.490912 8.191805
66 6.811939 7.411742 6.038500
67 9.043314 6.281356 3.630513
68 5.505881 8.067699 7.445466
69 6.225755 7.699445 6.667059
70 8.755334 6.415759 3.936293
71 5.053171 8.288899 7.930469
72 5.979881 7.795050 6.919805
73 6.498124 7.521754 6.355865
74 7.045434 7.207428 5.749118
75 7.739267 6.834423 4.991012
76 8.421840 6.468828 4.245799
77 4.369224 8.508939 8.613573
78 9.266611 6.018330 3.324360
79 7.256648 7.033082 5.491903
80 5.216734 8.059913 7.690421
81 4.588368 8.368262 8.364186
82 5.684336 7.811729 7.180895
83 9.568375 5.833597 2.984857
84 8.110028 6.499619 4.526996
85 7.439930 6.782029 5.225324
86 4.755493 8.138025 8.120536
87 6.219957 7.377161 6.531904
88 6.555647 7.200644 6.166836
89 4.931189 7.994076 7.907043
90 5.774659 7.537289 6.983988
91 6.757436 7.039461 5.923439
92 7.815553 6.503737 4.781705
93 5.437819 7.695625 7.342139
94 5.252508 7.761920 7.530124
95 8.737088 5.997403 3.770056
96 5.961389 7.392767 6.760769
97 8.458984 6.104270 4.055381
98 4.304616 8.200828 8.535092
99 8.983491 5.817792 3.480329
100 4.499810 8.059882 8.306159
101 6.932029 6.828163 5.681609
102 4.070375 8.270550 8.766592
103 7.155411 6.706672 5.436925
104 5.027449 7.773263 7.728355
105 6.300121 7.119438 6.350992
106 9.257695 5.609299 3.154166
107 7.510331 6.481261 5.034080
108 9.552904 5.445281 2.829299
109 8.160100 6.144380 4.329527
110 5.521309 7.449106 7.163241
111 7.878141 6.173051 4.584162
112 4.605818 7.827895 8.114239
113 4.774086 7.742656 7.932654
114 6.035998 7.086105 6.563348
115 6.428688 6.886037 6.139082
116 5.667317 7.242041 6.947803
117 6.618717 6.758011 5.920202
118 7.235229 6.438330 5.251692
119 4.227879 7.935549 8.485653
120 5.078291 7.492505 7.562610
121 7.583827 6.214198 4.854833
122 5.266576 7.386387 7.354754
123 8.459359 5.740475 3.896876
124 8.710420 5.606898 3.623164
125 4.392155 7.790359 8.281429
126 4.869899 7.546078 7.764887
127 3.995575 7.982486 8.705582
128 5.798595 7.066449 6.758701
129 6.962504 6.474738 5.501760
130 8.968170 5.439605 3.329046
131 8.196609 5.817298 4.155949
132 6.742393 6.543894 5.720879
133 6.139564 6.825775 6.361202
134 3.758911 8.022097 8.926071
135 9.538983 5.095880 2.689331
136 9.222919 5.239048 3.023043
137 5.408485 7.167757 7.137808
138 4.581832 7.542589 8.010785
139 7.921511 5.850307 4.406578
140 7.293853 6.167223 5.083460
141 6.314701 6.633507 6.127179
142 7.648356 5.954218 4.686367
143 5.886491 6.818892 6.575568
144 4.702406 7.408108 7.848752
145 5.536371 6.974828 6.944081
146 4.191155 7.653690 8.394638
147 4.386554 7.551902 8.182554
148 6.470703 6.492159 5.931733
149 4.874044 7.288923 7.649513
150 7.044386 6.189595 5.307449
151 4.015654 7.722214 8.575166
152 5.027230 7.193419 7.476418
153 5.191387 7.080150 7.286176
154 6.813570 6.238399 5.526912
155 7.381133 5.946236 4.912408
156 8.453461 5.400030 3.753911
157 8.686734 5.267539 3.495949
158 5.655168 6.795163 6.763928
159 8.216655 5.491381 3.997019
160 6.103283 6.542447 6.269167
161 6.605150 6.286764 5.726950
162 9.272037 4.936167 2.849159
163 8.915219 5.104334 3.228744
164 3.795126 7.690968 8.750987
165 3.569337 7.796378 8.990746
166 7.681875 5.709488 4.551166
167 7.977134 5.557263 4.231385
168 5.923022 6.581153 6.440820
169 5.308375 6.887724 7.102028
170 4.422914 7.330066 8.054867
171 4.158682 7.452777 8.335167
172 4.546757 7.253845 7.915360
173 4.692557 7.170082 7.753714
174 9.453467 4.744456 2.609974
175 7.106662 5.908008 5.131524
176 6.216672 6.349866 6.088043
177 3.942061 7.470870 8.529085
178 5.418511 6.723142 6.935872
179 5.723278 6.567494 6.606436
180 4.249486 7.313441 8.196593
181 7.437449 5.695439 4.754989
182 6.378588 6.229846 5.896790
183 6.889623 5.969415 5.344635
184 4.965961 6.934861 7.416616
185 4.784667 7.014695 7.607038
186 9.026505 4.863117 3.028278
187 7.741838 5.497917 4.407671
188 5.113622 6.818775 7.239317
189 6.680860 6.019279 5.545618
190 7.220711 5.711137 4.947966
191 5.521291 6.561039 6.777112
192 5.978889 6.324799 6.281370
193 8.427120 5.082317 3.638388
194 8.226855 5.180480 3.853074
195 8.645172 4.958725 3.397368
196 4.565818 7.011992 7.793827
197 4.428722 7.080371 7.941308
198 6.483661 6.039423 5.723747
199 8.009219 5.262951 4.075856
200 3.577730 7.491271 8.850872
201 4.027048 7.262083 8.365308
202 4.292879 7.124113 8.077000
203 5.794718 6.339320 6.445864
204 7.484053 5.473120 4.618295
205 5.210653 6.623732 7.071171
206 3.367007 7.555472 9.059773
207 9.161491 4.604783 2.800015
208 3.714514 7.359901 8.676270
209 7.803688 5.264517 4.253064
210 6.194609 6.077946 5.988757
211 6.906957 5.714727 5.219004
212 8.776575 4.759974 3.198089
213 6.050852 6.139826 6.139133
214 9.382325 4.452103 2.543957
215 4.126917 7.112314 8.214411
216 5.590300 6.363384 6.631898
217 4.756452 6.780153 7.529289
218 5.322582 6.486058 6.915175
219 6.720562 5.777755 5.406500
220 4.910821 6.693126 7.358864
221 7.047110 5.590851 5.044766
222 5.041056 6.599675 7.206374
223 4.578629 6.826537 7.702186
224 3.822513 7.199209 8.513640
225 6.292422 5.947026 5.847822
226 7.240604 5.466031 4.824305
227 6.531161 5.811889 5.584014
228 4.296764 6.927716 7.988267
229 7.566191 5.271068 4.459893
230 4.410777 6.856997 7.859595
231 5.414608 6.336169 6.770962
232 5.858669 6.108410 6.290534
233 8.411505 4.809951 3.533371
234 8.024110 4.998984 3.948290
235 8.906532 4.549236 2.994840
236 5.634115 6.193725 6.520496
237 4.172754 6.921219 8.091952
238 3.931541 7.029272 8.346108
239 8.188283 4.872511 3.752293
240 6.367029 5.778839 5.710614
241 7.339139 5.271096 4.654915
242 5.156068 6.375924 7.010303
243 5.720833 6.072923 6.393489
244 5.039847 6.413692 7.126544
245 8.545762 4.637791 3.343203
246 3.430130 7.227476 8.862940
247 7.830376 4.993622 4.112352
248 6.060178 5.882499 6.019234
249 9.156584 4.314135 2.677851
250 3.183429 7.336892 9.122402
251 6.712938 5.547951 5.313126
252 4.740175 6.545268 7.441137
253 5.924544 5.940836 6.161093
254 7.640761 5.071063 4.308881
255 4.027191 6.898181 8.206956
256 4.566393 6.622801 7.624107
257 4.884304 6.459656 7.280122
258 6.856935 5.454713 5.148909
259 6.546939 5.609675 5.482537
260 7.018586 5.361674 4.969616
261 5.232298 6.256328 6.892828
262 5.459747 6.135711 6.645031
263 3.577175 7.076810 8.671135
264 6.160409 5.767205 5.883016
265 4.378653 6.665563 7.803946
266 4.235060 6.736386 7.958070
267 9.310497 4.156928 2.477302
268 8.668020 4.456589 3.159408
269 3.738342 6.951921 8.478408
270 8.964157 4.305598 2.839410
271 7.135696 5.227746 4.810799
272 5.326976 6.140514 6.761154
273 7.416697 5.068430 4.500180
274 8.223929 4.646924 3.623589
275 5.527244 6.000618 6.528319
276 6.387993 5.560932 5.597858
277 7.955406 4.762984 3.904682
278 4.109182 6.709458 8.054476
279 6.238769 5.621793 5.752487
280 5.762972 5.854076 6.262139
281 4.919636 6.276889 7.170307
282 5.637975 5.904145 6.391266
283 5.032661 6.185541 7.033512
284 8.354781 4.501585 3.448008
285 4.742935 6.324581 7.342809
286 4.425277 6.481752 7.683978
287 6.525113 5.415592 5.416893
288 7.232466 5.056865 4.653384
289 3.846096 6.770819 8.307115
290 5.868400 5.738620 6.121387
291 4.585158 6.386413 7.505205
292 3.975058 6.694098 8.162993
293 6.669525 5.329623 5.255481
294 7.634047 4.835234 4.212105
295 5.145686 6.094192 6.896718
296 8.753958 4.260018 3.000126
297 5.983448 5.662452 5.989455
298 6.811102 5.241359 5.095504
299 7.479964 4.893271 4.369679
300 7.765320 4.738491 4.057293
301 5.258711 6.002843 6.759923
302 3.219810 7.031560 8.958392
303 4.173355 6.545055 7.927874
304 6.930966 5.143117 4.949839
305 8.031767 4.576609 3.758058
306 9.061698 4.044450 2.642083
307 5.371736 5.911494 6.623129
308 6.079559 5.550182 5.858092
309 4.273747 6.456961 7.803344
310 8.470480 4.329860 3.273967
311 2.976414 7.090408 9.193028
312 9.251305 3.913684 2.422374
313 5.484761 5.820145 6.486335
314 7.038351 5.023959 4.805797
315 6.203948 5.442466 5.704420
316 6.331667 5.373495 5.564735
317 3.530792 6.789762 8.586159
318 4.879273 6.100070 7.128090
319 5.597786 5.728796 6.349540
320 4.747848 6.157815 7.266077
321 3.672324 6.692744 8.422416
322 7.289402 4.848691 4.513965
323 3.346055 6.842796 8.767886
324 8.856443 4.052359 2.821811
325 4.027374 6.493771 8.030955
326 8.151025 4.405330 3.581156
327 5.710811 5.637448 6.212746
328 6.425511 5.263698 5.436393
329 4.392898 6.290617 7.628680
330 5.097502 5.930736 6.867029
331 6.542518 5.189030 5.303431
332 4.969433 5.982194 6.999399
333 7.818368 4.539007 3.924992
334 5.823835 5.546099 6.075951
335 7.132221 4.881850 4.663382
336 3.888663 6.522520 8.162591
337 8.559080 4.153357 3.121125
338 6.657368 5.105093 5.168292
339 4.552680 6.167639 7.437974
340 7.543319 4.642665 4.206298
341 5.936860 5.454750 5.939157
342 7.405565 4.710889 4.354276
343 5.209013 5.817018 6.721808
344 8.282125 4.254499 3.402973
345 6.767348 5.015574 5.034909
346 5.329003 5.738009 6.584397
347 4.111651 6.353725 7.897677
348 6.049885 5.363401 5.802362
349 6.875279 4.921676 4.901381
350 3.739397 6.506091 8.283648
351 7.653520 4.522467 4.059385
352 4.225490 6.255836 7.757340
353 6.162910 5.272052 5.665568
354 5.450058 5.624832 6.431215
355 8.666967 3.992436 2.958492
356 7.871417 4.388921 3.814170
357 9.027487 3.800413 2.565355
358 6.275935 5.180703 5.528773
359 4.770992 5.936067 7.149780
360 6.980076 4.811900 4.763641
361 7.980553 4.303339 3.683223
362 2.863812 6.890949 9.203012
363 5.555142 5.526658 6.298273
364 4.614610 5.999752 7.311783
365 5.679836 5.448615 6.157242
366 6.388960 5.089355 5.391979
367 8.851935 3.833411 2.730480
368 5.036430 5.760693 6.845545
369 7.112187 4.708983 4.605424
370 3.964546 6.298874 8.000172
371 4.348697 6.102541 7.584864
372 8.379563 4.058749 3.234171
373 7.233509 4.637192 4.470008
374 3.070091 6.743664 8.961801
375 6.501985 4.998006 5.255185
376 5.804993 5.345155 6.004761
377 8.094838 4.177940 3.530541
378 3.542192 6.482290 8.442674
379 9.133271 3.651732 2.409851
380 4.886392 5.789262 6.986831
381 6.615010 4.906657 5.118390
382 3.379152 6.543851 8.609474
383 3.823625 6.312466 8.127116
384 7.345077 4.529547 4.327379
385 5.911536 5.252672 5.873041
386 5.293505 5.559051 6.537073
387 7.462222 4.452830 4.193407
388 6.728035 4.815308 4.981596
389 5.143240 5.614881 6.690407
390 6.045182 5.157862 5.717031
391 4.049946 6.162395 7.867480
392 8.211530 4.047458 3.373581
393 7.693989 4.304466 3.929837
394 6.841059 4.723959 4.844801
395 8.480242 3.892135 3.075253
396 7.564611 4.346968 4.059437
397 4.158504 6.068745 7.733522
398 6.145140 5.051131 5.584770
399 8.644281 3.781997 2.886475
400 6.954084 4.632611 4.708007
401 4.417072 5.911520 7.443080
402 7.790067 4.183706 3.794809
403 3.170140 6.518892 8.778137
404 5.384094 5.396126 6.388425
405 3.636968 6.280226 8.273413
406 6.253676 4.954698 5.449621
407 5.666471 5.250629 6.082633
408 7.067109 4.541262 4.571212
409 5.518509 5.312808 6.236751
410 6.370187 4.879612 5.316903
411 4.571422 5.788095 7.256845
412 4.710086 5.716961 7.106819
413 7.908493 4.095512 3.654747
414 8.913195 3.577950 2.566788
415 7.180134 4.449913 4.434418
416 4.949437 5.571851 6.838150
417 3.883927 6.108555 7.986660
418 8.757995 3.639284 2.726754
419 2.745296 6.681016 9.213520
420 4.241448 5.920768 7.597941
421 8.021425 3.990972 3.512297
422 5.901774 5.063233 5.799054
423 7.293159 4.358564 4.297623
424 8.272458 3.845868 3.233597
425 6.693796 4.637435 4.933661
426 6.566740 4.698528 5.069350
427 5.197322 5.388044 6.545325
428 7.406184 4.267215 4.160829
429 6.443949 4.754271 5.199050
430 9.036276 3.436473 2.399559
431 5.747182 5.099645 5.947663
432 8.131270 3.879721 3.369580
433 3.436708 6.253364 8.433732
434 3.720577 6.106598 8.126107
435 3.988242 5.971064 7.837284
436 7.519209 4.175866 4.024035
437 6.796508 4.529194 4.798379
438 4.774553 5.540987 6.974934
439 8.353192 3.723433 3.111020
440 5.042572 5.399021 6.683010
441 8.479484 3.657784 2.974006
442 7.632234 4.084518 3.887240
443 5.986154 4.915243 5.662234
444 4.083669 5.861294 7.707593
445 6.902637 4.433601 4.665662
446 7.745259 3.993169 3.750446
447 6.103099 4.817089 5.519113
448 2.901424 6.435721 8.972767
449 5.545608 5.088997 6.116160
450 3.237961 6.256920 8.605978
451 8.587175 3.547883 2.833725
452 4.397749 5.666786 7.353262
453 7.015677 4.340469 4.528078
454 7.858284 3.901820 3.613651
455 6.236602 4.710494 5.358102
456 3.843699 5.921361 7.939817
457 4.218246 5.730734 7.535239
458 5.368111 5.146701 6.293698
459 7.131248 4.246526 4.387969
460 8.714738 3.442853 2.678495
461 7.971308 3.810471 3.476857
462 5.213125 5.198706 6.449425
463 8.839404 3.360095 2.535438
464 7.250138 4.159699 4.248104
465 3.525122 6.042885 8.266276
466 4.554054 5.514879 7.152964
467 6.602044 4.476619 4.942539
468 7.378653 4.082394 4.104112
469 8.084333 3.719122 3.340062
470 5.792704 4.876230 5.811421
471 4.860676 5.324683 6.806913
472 3.697765 5.911862 8.061026
473 2.618669 6.456713 9.224747
474 8.197358 3.627773 3.203268
475 8.949614 3.244144 2.390364
476 3.926537 5.779734 7.807087
477 6.445060 4.504293 5.089402
478 6.310284 4.551143 5.225529
479 8.310383 3.536425 3.066473
480 7.463503 3.959047 3.977603
481 5.606158 4.899222 5.981637
482 6.701996 4.342913 4.798555
483 7.610029 3.872926 3.814308
484 3.003331 6.197339 8.781589
485 4.034592 5.671314 7.667139
486 8.423408 3.445076 2.929679
487 5.017414 5.154111 6.598127
488 6.826698 4.231583 4.643043
489 3.310918 6.006452 8.434410
490 8.536433 3.353727 2.792885
491 4.237495 5.529724 7.431304
492 7.723312 3.762194 3.668864
493 4.662632 5.310749 6.970950
494 6.041655 4.605637 5.479944
495 5.885512 4.683426 5.647875
496 5.390744 4.925866 6.178238
497 7.859569 3.672168 3.512691
498 6.959599 4.122656 4.481534
499 8.649458 3.262378 2.656090
500 3.776086 5.727384 7.913544
501 3.538636 5.836300 8.164843
502 7.258197 3.942698 4.146827
503 7.100200 4.017868 4.315212
504 8.006875 3.556854 3.336033
505 8.762483 3.171029 2.519296
506 4.354331 5.398895 7.274070
507 5.164770 4.959803 6.387078
508 4.088049 5.503727 7.548356
509 8.875508 3.079680 2.382501
510 6.485698 4.287593 4.960274
511 8.141093 3.444621 3.171956
512 6.140585 4.437954 5.322064
513 3.864833 5.588404 7.776890
514 5.670271 4.672114 5.827822
515 7.456049 3.765092 3.899670
516 3.090018 5.956904 8.602591
517 8.260847 3.337362 3.022464
518 4.797226 5.084403 6.756931
519 8.398092 3.256306 2.869342
520 3.622382 5.673344 8.022060
521 2.724108 6.117879 8.986857
522 2.491839 6.232053 9.235993
523 3.358623 5.789432 8.299073
524 6.614128 4.138410 4.785102
525 4.439522 5.227697 7.126462
526 3.944146 5.465334 7.655257
527 6.282893 4.281288 5.131718
528 5.457185 4.692958 6.019901
529 7.287723 3.759140 4.041654
530 7.549170 3.622928 3.757876
531 7.842759 3.466583 3.437737
532 6.761326 4.009775 4.602744
533 8.599603 3.070351 2.615413
534 7.680883 3.528605 3.603737
535 8.815560 2.946640 2.376141
536 4.162468 5.302025 7.396736
537 3.710890 5.519511 7.879153
538 5.920826 4.399110 5.493920
539 4.940801 4.894857 6.551200
540 5.244405 4.740191 6.223190
541 6.919995 3.890509 4.414609
542 7.989238 3.334776 3.254618
543 7.092907 3.787081 4.221126
544 8.449252 3.090071 2.753120
545 4.572070 5.043393 6.932481
546 5.740793 4.450451 5.670870
547 3.441339 5.598105 8.144838
548 3.803128 5.397073 7.746694
549 3.158645 5.721770 8.441409
550 2.837324 5.878874 8.785695
551 4.009864 5.282870 7.519475
552 8.106338 3.203339 3.096892
553 6.391488 4.067988 4.945702
554 8.263776 3.114747 2.923152
555 4.225055 5.131945 7.269028
556 8.634817 2.896621 2.509628
557 7.343647 3.549589 3.902506
558 6.054004 4.194846 5.290719
559 3.544647 5.447557 7.990649
560 5.506621 4.451997 5.872668
561 3.874883 5.261413 7.626078
562 6.543266 3.905444 4.744667
563 5.043636 4.663422 6.362246
564 7.828911 3.249250 3.355132
565 2.364628 6.006716 9.247272
566 8.740064 2.779091 2.368130
567 4.685852 4.806162 6.731604
568 7.660955 3.296451 3.519909
569 4.341776 4.972270 7.099350
570 6.716704 3.768395 4.536114
571 7.124571 3.559488 4.094969
572 3.247931 5.514478 8.274589
573 3.643021 5.309914 7.846308
574 7.473167 3.369998 3.713175
575 5.254379 4.492665 6.106996
576 6.909499 3.650379 4.319211
577 8.455086 2.854123 2.645516
578 2.936778 5.647026 8.599466
579 6.171038 4.000548 5.105718
580 4.020331 5.078958 7.421821
581 5.822164 4.161966 5.475545
582 3.741424 5.205743 7.716497
583 8.283986 2.895617 2.810513
584 2.546127 5.790176 8.997231
585 7.928635 3.064475 3.189138
586 8.104648 2.965482 2.994920
587 3.359994 5.356965 8.109852
588 4.800180 4.608446 6.547440
589 5.604805 4.198366 5.678057
590 3.856912 5.077950 7.561740
591 4.455631 4.766476 6.912080
592 7.251084 3.331979 3.887386
593 6.307372 3.806674 4.904324
594 4.110745 4.910621 7.270972
595 3.476022 5.220959 7.951061
596 3.043375 5.428233 8.412778
597 8.613821 2.596613 2.397213
598 7.725827 3.037160 3.351448
599 5.351609 4.224115 5.906718
600 6.481327 3.649781 4.686698
601 7.510413 3.115548 3.570547
602 5.926192 3.916959 5.279664
603 2.679226 5.554290 8.780348
604 3.581722 5.092921 7.804605
605 6.676570 3.517295 4.461402
606 4.959510 4.383911 6.312964
607 6.879994 3.409111 4.239646
608 8.438887 2.617951 2.556738
609 4.224488 4.750346 7.103590
610 7.052949 3.312375 4.049036
611 3.679719 5.014413 7.686300
612 3.918055 4.865535 7.416865
613 3.158620 5.235373 8.229938
614 7.919205 2.818931 3.090471
615 5.112628 4.237677 6.117870
616 3.777128 4.908214 7.556461
617 8.255614 2.638278 2.722986
618 7.298946 3.102678 3.746575
619 8.084149 2.703902 2.898788
620 3.291085 5.118914 8.065529
621 4.522534 4.488624 6.733804
622 5.677097 3.903540 5.487772
623 2.811902 5.339275 8.572904
624 2.234950 5.630663 9.195135
625 6.051843 3.696662 5.075957
626 3.429655 4.996529 7.893299
627 4.312541 4.531163 6.932659
628 4.009790 4.682853 7.258643
629 7.558878 2.877061 3.425223
630 5.403450 3.956017 5.745619
631 4.707908 4.305140 6.494809
632 6.221640 3.523484 4.854822
633 3.618015 4.823082 7.656104
634 7.726378 2.738678 3.221190
635 8.450617 2.360708 2.434810
636 2.952600 5.142786 8.366625
637 3.507860 4.855384 7.764758
638 7.063864 3.052132 3.926503
639 6.425955 3.374545 4.614580
640 2.401551 5.411029 8.956545
641 3.727060 4.727036 7.520684
642 6.644724 3.240780 4.368520
643 4.110517 4.518523 7.100677
644 3.843075 4.641982 7.384059
645 6.839726 3.104585 4.141818
646 7.343367 2.840954 3.594622
647 3.256962 4.907600 8.002953
648 5.781278 3.615597 5.273091
649 5.116396 3.950029 5.989561
650 8.245416 2.365715 2.613230
651 3.080578 4.952309 8.173886
652 7.868120 2.522051 3.005258
653 2.550256 5.208238 8.740649
654 8.039839 2.401964 2.805558
655 4.859023 4.011347 6.237274
656 5.478715 3.693914 5.567009
657 3.341410 4.760047 7.866265
658 4.246202 4.292791 6.885988
659 3.556310 4.631752 7.625907
660 4.431455 4.188461 6.681515
661 3.905848 4.433129 7.239332
662 2.713486 5.035251 8.525238
663 7.107319 2.801354 3.780139
664 7.487297 2.603123 3.367590
665 3.651910 4.541672 7.504630
666 5.933976 3.366912 5.033811
667 3.425995 4.620846 7.733090
668 4.042682 4.302091 7.064831
669 4.596098 4.015071 6.464714
670 3.752364 4.441818 7.374934
671 6.152139 3.223964 4.784279
672 2.869788 4.869945 8.319116
673 6.393552 3.079236 4.514005
674 3.130168 4.718841 8.029779
675 2.099693 5.238431 9.140756
676 5.159621 3.677521 5.833945
677 7.645331 2.412512 3.148978
678 8.257578 2.081677 2.479281
679 6.603715 2.916929 4.262927
680 6.836049 2.788106 4.007367
681 5.556522 3.430162 5.385499
682 3.494606 4.440421 7.595710
683 7.231727 2.540178 3.559724
684 3.246093 4.555478 7.859181
685 2.268548 5.020426 8.900939
686 8.028170 2.090728 2.680249
687 3.587239 4.337406 7.471357
688 4.218633 4.009416 6.786451
689 2.917986 4.665727 8.188922
690 3.854286 4.182152 7.174489
691 3.717146 4.243077 7.318767
692 4.031857 4.080081 6.977595
693 7.795969 2.168636 2.913557
694 2.458662 4.867607 8.671206
695 3.350078 4.408574 7.705994
696 4.861382 3.626712 6.068003
697 5.249181 3.426702 5.647963
698 2.655823 4.729096 8.441642
699 5.666918 3.192268 5.187243
700 4.376113 3.830471 6.573387
701 4.607187 3.709678 6.322400
702 3.055054 4.494484 7.996738
703 6.966684 2.500059 3.769920
704 7.365038 2.297791 3.339833
705 6.118960 2.901452 4.672543
706 3.432901 4.249091 7.565513
707 3.181606 4.335614 7.818967
708 5.873868 2.970655 4.913138
709 3.543894 4.146861 7.425733
710 6.311770 2.732741 4.433585
711 7.536275 2.105204 3.109022
712 3.823299 3.957906 7.103598
713 6.521114 2.586087 4.190016
714 3.660081 4.027826 7.274185
715 3.983035 3.839378 6.914867
716 3.279254 4.194046 7.673543
717 2.845362 4.409128 8.139724
718 6.704546 2.451294 3.973860
719 2.672282 4.489804 8.323458
720 5.317567 3.148232 5.468145
721 1.961994 4.839115 9.085395
722 8.037382 1.763392 2.530007
723 4.148042 3.729369 6.725312
724 7.087927 2.226325 3.546763
725 7.826224 1.847560 2.747963
726 3.003338 4.266661 7.942096
727 4.974059 3.265412 5.814128
728 2.404117 4.551629 8.580662
729 3.371197 4.057761 7.535317
730 2.177735 4.642921 8.814791
731 3.462528 3.974216 7.420548
732 7.616162 1.868057 2.937294
733 7.279480 2.033941 3.298591
734 4.313786 3.515916 6.490145
735 4.524108 3.400779 6.259441
736 3.104583 4.103033 7.783990
737 6.827951 2.205340 3.760926
738 3.651822 3.800582 7.182468
739 5.586226 2.819992 5.094677
740 3.517904 3.854846 7.321083
741 4.702832 3.245722 6.038518
742 5.972923 2.597087 4.665628
743 3.780307 3.706136 7.031049
744 3.208326 3.984045 7.643150
745 2.804563 4.174970 8.072950
746 6.201303 2.443611 4.402744
747 5.352955 2.869148 5.316401
748 7.387015 1.828524 3.116913
749 3.903377 3.578807 6.869982
750 2.437253 4.309536 8.446936
751 3.309492 3.866430 7.505120
752 4.071465 3.479947 6.682630
753 6.389558 2.293934 4.175974
754 7.055272 1.951597 3.455354
755 7.821831 1.552149 2.623287
756 6.568774 2.183003 3.973815
757 2.607910 4.185385 8.246379
758 2.921056 4.023864 7.907193
759 5.033533 2.932881 5.618457
760 5.697244 2.590411 4.899500
761 7.633169 1.604052 2.807893
762 3.384677 3.743046 7.386896
763 6.853708 1.960729 3.632443
764 3.503583 3.639441 7.239721
765 3.021583 3.865849 7.752146
766 1.903596 4.430032 8.957676
767 7.155472 1.765028 3.288171
768 3.631382 3.539986 7.086713
769 3.142892 3.786255 7.613348
770 7.439542 1.608086 2.975949
771 2.149027 4.268585 8.676681
772 4.298058 3.164214 6.350728
773 3.247788 3.675100 7.474923
774 4.096955 3.240045 6.556423
775 6.618200 1.958268 3.833646
776 2.698680 3.933775 8.059016
777 3.730724 3.406447 6.943325
778 5.979676 2.265322 4.515572
779 4.736968 2.869059 5.845420
780 4.467521 2.993066 6.130763
781 3.872587 3.293145 6.772217
782 5.378763 2.521638 5.143133
783 7.234172 1.578723 3.139569
784 6.169271 2.116212 4.287898
785 3.340769 3.545429 7.338681
786 5.142148 2.632107 5.394390
787 5.751304 2.320758 4.735820
788 2.833052 3.794069 7.882860
789 2.319800 4.043167 8.431992
790 6.909649 1.712395 3.476417
791 7.618057 1.352447 2.711470
792 6.360645 1.976793 4.062909
793 3.463309 3.428085 7.182411
794 3.096283 3.597928 7.571491
795 2.493389 3.903012 8.221959
796 7.446898 1.382450 2.871521
797 6.693761 1.737288 3.672662
798 2.957328 3.628211 7.704005
799 7.014795 1.557227 3.318641
800 3.186083 3.483770 7.444727
801 5.500152 2.286490 4.936628
802 3.563204 3.265471 7.025907
803 4.885526 2.590945 5.596899
804 7.269829 1.378678 3.021961
805 6.466619 1.755780 3.875791
806 3.284304 3.363004 7.307856
807 3.869045 3.045280 6.667484
808 4.055651 2.945008 6.463612
809 2.618555 3.662874 8.010041
810 1.849645 4.052103 8.839684
811 3.679617 3.121733 6.863423
812 2.788946 3.572246 7.824290
813 5.936790 1.963065 4.420979
814 5.759708 2.052586 4.611997
815 7.082947 1.371002 3.179133
816 3.388208 3.234439 7.162713
817 6.754669 1.526796 3.528825
818 3.012082 3.420085 7.566481
819 6.110648 1.848271 4.221743
820 2.057633 3.892347 8.591583
821 7.429391 1.167551 2.793116
822 4.201661 2.789138 6.270433
823 4.449220 2.660143 6.001720
824 5.065032 2.343881 5.335298
825 5.255287 2.235845 5.124916
826 6.254515 1.724126 4.044199
827 3.124379 3.292439 7.414530
828 6.891724 1.376552 3.345784
829 7.272869 1.182589 2.934088
830 6.543723 1.547143 3.718849
831 2.235651 3.723077 8.365087
832 2.415148 3.629409 8.170192
833 4.638797 2.499248 5.768938
834 5.547858 2.036498 4.786955
835 2.840852 3.372999 7.693073
836 3.208257 3.180930 7.294003
837 3.453339 3.037497 7.021140
838 7.108621 1.179371 3.073758
839 6.345243 1.528938 3.881403
840 2.643789 3.399859 7.874006
841 2.965943 3.226606 7.521981
842 6.719493 1.323825 3.470782
843 3.293767 3.055311 7.165939
844 3.719977 2.839266 6.705937
845 3.557039 2.914982 6.878803
846 4.804776 2.279222 5.530711
847 3.884278 2.733459 6.518816
848 6.941918 1.183741 3.218836
849 5.872955 1.717838 4.369178
850 5.685935 1.808577 4.569260
851 6.561819 1.353717 3.619203
852 5.312951 1.985604 4.966582
853 7.258423 1.000000 2.867103
854 6.022325 1.605654 4.192108
855 3.062674 3.101109 7.384333
856 2.440333 3.388677 8.043887
857 6.153409 1.503392 4.035057
858 7.107313 1.000000 2.996888
859 6.776675 1.164960 3.352593
860 5.085741 2.020403 5.176858
861 4.200236 2.460283 6.128665
862 6.381887 1.340355 3.767931
863 1.793810 3.660969 8.717569
864 3.144485 2.974052 7.258822
865 2.808560 3.140955 7.619912
866 5.460884 1.796856 4.757454
867 3.975209 2.543281 6.358025
868 4.406061 2.325094 5.893105
869 4.896034 2.074958 5.363515
870 2.015949 3.512586 8.462259
871 3.280435 2.867398 7.095682
872 6.956203 1.000000 3.126673
873 2.663688 3.170018 7.756976
874 2.219051 3.384916 8.232306
875 6.597822 1.159356 3.503769
876 4.594840 2.168226 5.662758
877 3.393760 2.759950 6.951630
878 2.893838 3.009272 7.489410
879 6.196299 1.323417 3.919964
880 3.544515 2.662730 6.779877
881 6.805093 1.000000 3.256458
882 5.706855 1.554876 4.440979
883 3.000970 2.909779 7.354137
884 5.859719 1.456949 4.267107
885 6.432613 1.166709 3.648861
886 2.472076 3.171128 7.922030
887 3.695487 2.532841 6.593732
888 5.543674 1.595714 4.598888
889 5.248956 1.733394 4.911880
890 6.004337 1.347076 4.095124
891 6.653983 1.000000 3.386243
892 3.099597 2.792280 7.218338
893 5.072311 1.781579 5.084549
894 6.256290 1.157893 3.796467
895 4.696727 1.925253 5.469601
896 6.502873 1.000000 3.516028
897 3.197948 2.667071 7.079423
898 2.688903 2.924012 7.628352
899 4.173944 2.163960 6.022402
900 4.873720 1.808400 5.266776
901 5.366195 1.551202 4.731967
902 4.364944 2.040768 5.804790
903 2.815553 2.821755 7.475113
904 6.074946 1.164463 3.955076
905 2.265609 3.089814 8.064004
906 3.968954 2.225093 6.225044
907 2.496961 2.959892 7.808809
908 3.776336 2.308689 6.426829
909 5.672886 1.344885 4.378847
910 6.351763 1.000000 3.645813
911 3.308548 2.539732 6.929062
912 3.449094 2.462744 6.774875
913 2.939265 2.718448 7.323940
914 5.819055 1.248815 4.211533
915 1.821532 3.258786 8.518883
916 2.040274 3.147043 8.282424
917 5.508335 1.380691 4.535745
918 4.495041 1.887769 5.626526
919 5.910738 1.148613 4.089219
920 6.200653 1.000000 3.775598
921 5.186686 1.511645 4.868943
922 3.026146 2.604005 7.199558
923 5.023647 1.557093 5.028735
924 3.548852 2.281327 6.610312
925 6.049543 1.000000 3.905383
926 5.335552 1.354095 4.672580
927 3.114545 2.468225 7.064594
928 2.760577 2.641547 7.443973
929 4.855717 1.572992 5.179880
930 5.688339 1.148854 4.280338
931 2.520355 2.745052 7.695300
932 4.689119 1.641939 5.352947
933 4.181993 1.891402 5.896976
934 2.302350 2.821003 7.915564
935 5.898433 1.000000 4.035168
936 2.877560 2.527118 7.293743
937 5.539952 1.176017 4.419595
938 3.994360 1.940677 6.079555
939 4.523258 1.670441 5.507794
940 3.341316 2.264198 6.781113
941 3.203917 2.331746 6.928492
942 5.167169 1.324397 4.804288
943 4.314484 1.734971 5.715164
944 3.808418 1.986851 6.259334
945 5.747323 1.000000 4.164953
946 5.393470 1.175982 4.545389
947 2.957541 2.404827 7.171876
948 2.588023 2.578962 7.564963
949 3.629826 2.049134 6.439805
950 5.001937 1.349375 4.957062
951 2.074923 2.828851 8.114309
952 5.596213 1.000000 4.294738
953 1.847078 2.888176 8.335795
954 5.236700 1.159467 4.672855
955 2.708249 2.438034 7.400427
956 4.837800 1.356047 5.100937
957 3.023439 2.252292 7.048953
958 2.331029 2.585962 7.788733
959 3.417631 2.034971 6.615895
960 4.679960 1.393078 5.252604
961 2.815856 2.335788 7.263547
962 4.087477 1.688034 5.889726
963 5.445103 1.000000 4.424523
964 4.361034 1.524139 5.583510
965 4.531217 1.433407 5.397892
966 5.074633 1.157718 4.811291
967 3.234686 2.081036 6.793053
968 3.906511 1.726288 6.061788
969 5.293993 1.000000 4.554308
970 3.083729 2.114137 6.937099
971 4.929230 1.169600 4.941340
972 2.884638 2.197076 7.144158
973 2.404969 2.426390 7.655844
974 4.172303 1.526637 5.746693
975 3.726870 1.744733 6.224097
976 2.543452 2.341175 7.499851
977 2.117098 2.554060 7.958602
978 3.566705 1.810517 6.390264
979 5.142883 1.000000 4.684093
980 4.786442 1.167847 5.063216
981 2.648181 2.213660 7.354456
982 2.754151 2.144457 7.233350
983 4.375606 1.323488 5.483748
984 4.650719 1.183956 5.186790
985 4.991773 1.000000 4.813878
986 3.380795 1.802821 6.546591
987 3.960721 1.505516 5.919232
988 3.185278 1.894516 6.754386
989 1.870644 2.546304 8.166905
990 2.883768 2.030514 7.072481
991 4.513600 1.203127 5.312893
992 4.209949 1.337920 5.632303
993 3.009711 1.935400 6.922954
994 4.840663 1.000000 4.943663
995 3.782664 1.519102 6.078069
996 2.186762 2.301729 7.789053
997 4.038799 1.341828 5.780999
998 2.347521 2.193197 7.603789
999 4.689553 1.000000 5.073449
1000 2.481441 2.114270 7.454449
1001 3.611928 1.537383 6.232660
1002 4.362296 1.149386 5.419478
1003 3.473048 1.591534 6.375486
1004 2.692447 1.953127 7.203153
1005 3.198337 1.684217 6.651730
1006 4.538443 1.000000 5.203234
1007 4.210268 1.160190 5.554749
1008 2.786827 1.875699 7.088425
1009 2.564672 1.980953 7.324996
1010 3.861532 1.322845 5.924995
1011 1.956254 2.281352 7.978170
1012 3.024831 1.717564 6.815249
1013 2.883684 1.781742 6.964383
1014 4.387333 1.000000 5.333019
1015 4.057622 1.163607 5.687339
1016 3.308204 1.536665 6.493209
1017 3.703093 1.331633 6.064897
1018 4.236223 1.000000 5.462804
1019 3.553739 1.343329 6.198259
1020 2.215490 2.016233 7.640240
1021 3.902719 1.158842 5.818311
1022 2.361726 1.918357 7.472084
1023 2.630742 1.761796 7.172957
1024 3.407372 1.364992 6.333390
1025 4.085113 1.000000 5.592589
1026 3.119979 1.486212 6.632933
1027 2.036060 2.034364 7.802232
1028 2.722615 1.672258 7.055117
1029 3.740493 1.152687 5.954966
1030 2.490194 1.774938 7.299384
1031 2.972319 1.515694 6.772575
1032 2.832922 1.571460 6.916547
1033 3.934003 1.000000 5.722374
1034 3.238674 1.334611 6.465071
1035 3.584652 1.155237 6.089923
1036 3.782893 1.000000 5.852159
1037 3.434833 1.165341 6.222993
1038 2.318378 1.709281 7.418405
1039 2.569038 1.570466 7.142760
1040 3.068082 1.308667 6.600308
1041 2.119016 1.777629 7.619351
1042 3.631783 1.000000 5.981944
1043 3.290270 1.166436 6.347631
1044 2.665426 1.477648 7.019616
1045 2.913969 1.327024 6.740654
1046 2.425122 1.553914 7.259168
1047 2.770486 1.363622 6.879801
1048 3.480673 1.000000 6.111729
1049 3.133228 1.151751 6.476126
1050 3.329563 1.000000 6.241514
1051 2.187668 1.565160 7.468003
1052 2.970403 1.145935 6.613444
1053 2.507333 1.379136 7.112563
1054 3.178453 1.000000 6.371299
1055 2.599861 1.288369 6.993626
1056 2.275074 1.437300 7.337336
1057 2.820722 1.160449 6.748312
1058 3.027343 1.000000 6.501084
1059 2.680841 1.163764 6.869894
1060 2.359535 1.313747 7.211073
1061 2.876233 1.000000 6.630869
1062 2.445629 1.187805 7.082366
1063 2.725123 1.000000 6.760654
1064 2.509644 1.094162 6.986668
1065 2.574013 1.000000 6.890439
1066 11.000000 2.607277 1.973848
1067 11.000000 2.707052 2.147210
1068 11.000000 2.806827 2.320572
1069 11.000000 2.906601 2.493935
1070 11.000000 3.006376 2.667297
1071 11.000000 3.106151 2.840659
1072 11.000000 3.205926 3.014022
1073 11.000000 3.305700 3.187384
1074 11.000000 3.405475 3.360746
1075 11.000000 3.505250 3.534108
1076 11.000000 3.605024 3.707471
1077 11.000000 3.704799 3.880833
1078 11.000000 3.804574 4.054195
1079 11.000000 3.904348 4.227557
1080 11.000000 4.004123 4.400920
1081 10.836804 2.575207 1.886463
1082 11.000000 4.103898 4.574282
1083 11.000000 4.203673 4.747644
1084 10.829023 2.682030 2.070562
1085 11.000000 4.303447 4.921007
1086 11.000000 4.403222 5.094369
1087 10.815522 2.784706 2.246347
1088 11.000000 4.502997 5.267731
1089 10.815863 2.886284 2.422909
1090 10.823763 2.982627 2.591841
1091 11.000000 4.602771 5.441093
1092 10.835033 3.172524 2.923980
1093 11.000000 4.702546 5.614456
1094 11.000000 4.802321 5.787818
1095 10.839755 3.367407 3.263513
1096 10.800282 3.078265 2.753460
1097 11.000000 4.902095 5.961180
1098 11.000000 5.001870 6.134542
1099 10.798690 3.277727 3.099725
1100 11.000000 5.101645 6.307905
1101 10.822382 3.567158 3.607217
1102 10.809477 3.471605 3.438686
1103 11.000000 5.201420 6.481267
1104 10.824796 3.671806 3.789516
1105 11.000000 5.301194 6.654629
1106 11.000000 5.400969 6.827991
1107 10.825080 3.867521 4.129633
1108 10.843492 4.048762 4.448118
1109 10.810498 3.773173 3.962870
1110 11.000000 5.500744 7.001354
1111 11.000000 5.600518 7.174716
1112 10.830778 4.153279 4.627254
1113 11.000000 5.700293 7.348078
1114 10.646055 2.537721 1.784324
1115 11.000000 5.800068 7.521441
1116 10.827350 4.260171 4.812317
1117 10.645201 2.642874 1.966866
1118 10.787048 3.960336 4.283524
1119 11.000000 5.899843 7.694803
1120 10.819333 4.367755 4.997693
1121 11.000000 5.999617 7.868165
1122 10.825558 4.469420 5.175547
1123 10.842999 4.692555 5.566637
1124 11.000000 6.099392 8.041527
1125 10.828122 4.576252 5.361669
1126 10.619717 2.748761 2.145904
1127 11.000000 6.199167 8.214890
1128 10.840442 4.806937 5.764883
1129 10.619889 2.868393 2.353803
1130 11.000000 6.298941 8.388252
1131 10.838737 4.920467 5.961816
1132 10.622610 2.987821 2.561840
1133 11.000000 6.398716 8.561614
1134 10.642248 3.201138 2.936296
1135 11.000000 6.498491 8.734976
1136 10.653375 3.401676 3.286897
1137 10.839067 5.105692 6.283715
1138 11.000000 6.598265 8.908339
1139 10.821145 5.023607 6.137613
1140 11.000000 6.698040 9.081701
1141 10.595116 3.104509 2.759257
1142 10.637512 3.633748 3.687055
1143 10.819775 5.283999 6.589787
1144 10.802495 5.196190 6.433864
1145 10.818775 5.370426 6.739764
1146 10.846723 5.722099 7.356230
1147 10.601023 3.530740 3.500994
1148 10.660832 4.079931 4.466838
1149 10.569555 3.307957 3.107795
1150 10.617275 3.747115 3.880108
1151 10.617381 3.869936 4.093534
1152 10.794920 5.461824 6.893942
1153 10.839366 5.860901 7.595977
1154 10.649886 4.199872 4.673116
1155 10.803074 5.629612 7.187062
1156 10.637786 4.320115 4.879695
1157 10.675016 4.657231 5.472669
1158 10.764928 5.545760 7.033965
1159 10.820323 6.060493 7.939080
1160 10.437143 2.655504 1.948446
1161 10.801491 5.966343 7.771837
1162 10.662353 4.773803 5.672762
1163 10.634026 4.536014 5.254099
1164 10.816654 6.175781 8.138686
1165 10.406425 2.526031 1.717522
1166 10.842568 6.475889 8.665163
1167 10.613585 4.437543 5.079036
1168 10.561271 3.990482 4.292101
1169 10.660620 4.891805 5.877459
1170 10.426649 2.802312 2.201494
1171 10.823068 6.372632 8.481967
1172 10.797916 6.272858 8.303725
1173 10.646966 5.014570 6.088118
1174 10.412015 2.936916 2.432535
1175 10.822953 6.663371 8.987114
1176 10.720100 5.798489 7.464395
1177 10.449544 3.446811 3.325776
1178 10.632113 5.144127 6.310346
1179 10.398305 3.070205 2.661470
1180 10.781977 6.575433 8.826368
1181 10.403760 3.212003 2.908907
1182 10.616327 5.282346 6.547445
1183 10.777899 6.759781 9.145889
1184 10.429168 3.664673 3.700367
1185 10.612579 5.393473 6.739804
1186 10.466997 4.133750 4.522745
1187 10.415986 3.801509 3.935568
1188 10.352387 3.351534 3.141381
1189 10.453157 4.263385 4.745306
1190 10.660122 6.129921 8.028635
1191 10.611768 5.709327 7.288456
1192 10.487522 4.616609 5.365713
1193 10.621254 5.912007 7.642460
1194 10.356173 3.561034 3.506129
1195 10.373445 3.923509 4.139294
1196 10.425169 4.394385 4.967493
1197 10.657287 6.476317 8.629961
1198 10.458904 4.732976 5.562353
1199 10.548734 5.612117 7.107320
1200 10.225469 2.748027 2.068142
1201 10.530709 5.501472 6.911573
1202 10.454693 4.850968 5.766552
1203 10.616988 6.366515 8.431356
1204 10.575114 6.028703 7.836271
1205 10.455274 4.971048 5.975307
1206 10.455185 5.098468 6.196687
1207 10.173063 2.633496 1.858972
1208 10.570314 6.251238 8.222004
1209 10.324735 4.055983 4.360022
1210 10.449987 5.241230 6.443733
1211 10.185069 2.875920 2.282524
1212 10.366970 4.518855 5.172474
1213 10.598749 6.692108 8.993548
1214 10.130650 2.512577 1.640643
1215 10.180222 3.011759 2.517608
1216 10.186450 3.156537 2.770373
1217 10.483535 5.824742 7.464115
1218 10.547527 6.590798 8.807582
1219 10.214838 3.734885 3.780782
1220 10.166300 3.304012 3.022707
1221 10.555206 6.821686 9.210247
1222 10.176362 3.467981 3.309562
1223 10.387322 5.379554 6.671918
1224 10.240608 4.204373 4.601535
1225 10.454742 6.155830 8.033807
1226 10.227754 4.331058 4.819161
1227 10.262456 4.649218 5.378707
1228 10.136849 3.622703 3.570731
1229 10.382262 5.952292 7.666091
1230 10.146210 3.857856 3.981135
1231 10.439572 6.486119 8.604754
1232 10.352001 5.728914 7.272092
1233 10.228801 4.789505 5.615932
1234 10.398525 6.359788 8.377285
1235 10.265052 5.188718 6.316612
1236 10.226241 4.922213 5.846020
1237 10.234213 5.050526 6.070517
1238 10.115459 3.993764 4.211314
1239 10.282740 5.495743 6.853512
1240 10.295290 5.617882 7.068167
1241 10.161909 4.450676 5.014227
1242 9.951667 2.774948 2.061799
1243 10.307074 6.084378 7.881008
1244 10.370805 6.753878 9.056653
1245 9.937776 2.929924 2.328380
1246 10.070101 4.141682 4.459527
1247 9.946013 3.086519 2.602069
1248 10.190564 5.317067 6.525172
1249 9.946164 3.242909 2.873831
1250 9.877941 2.640188 1.813345
1251 9.957511 3.406496 3.160271
1252 10.273012 6.240905 8.146372
1253 10.306281 6.634682 8.837027
1254 10.216984 5.856265 7.467174
1255 9.839539 2.498374 1.559488
1256 10.058993 4.577409 5.214464
1257 9.928430 3.567968 3.435192
1258 10.297341 6.893368 9.284770
1259 9.933455 3.745402 3.744466
1260 9.989631 4.317485 4.749380
1261 10.019805 4.720960 5.456287
1262 10.216697 6.507705 8.599021
1263 10.043700 5.163521 6.229888
1264 10.168922 6.376070 8.361032
1265 10.056525 5.444529 6.720639
1266 9.882659 3.903675 4.009615
1267 10.115597 6.008105 7.711332
1268 9.982393 4.881920 5.728702
1269 10.058654 5.744447 7.242170
1270 9.973178 5.021805 5.969970
1271 10.029718 5.599130 6.984064
1272 9.847708 4.059683 4.273904
1273 9.891238 4.467054 4.990173
1274 9.693439 2.870885 2.178396
1275 9.707042 3.019009 2.438405
1276 10.048133 6.160431 7.962917
1277 9.710212 3.170615 2.702441
1278 10.109946 6.776860 9.045978
1279 9.823526 4.219714 4.547273
1280 9.939915 5.289966 6.429456
1281 9.707173 3.331717 2.981772
1282 9.627899 2.749870 1.955412
1283 9.685985 3.491130 3.254648
1284 9.947290 5.914885 7.516707
1285 10.026231 6.630950 8.776212
1286 9.692366 3.664451 3.557037
1287 9.971852 6.304294 8.198086
1288 9.556758 2.624480 1.723740
1289 10.031029 6.967399 9.361735
1290 9.530352 2.483290 1.473295
1291 9.768875 4.649435 5.283327
1292 9.781081 4.809221 5.563329
1293 9.952923 6.477574 8.495494
1294 9.638339 3.828251 3.831164
1295 9.776357 5.146870 6.149090
1296 9.661936 4.358888 4.757745
1297 9.777605 5.415831 6.616662
1298 9.503757 3.107127 2.552075
1299 9.487632 2.964297 2.300774
1300 9.590310 3.999711 4.119765
1301 9.505094 3.258550 2.815437
1302 9.815799 6.076473 7.771962
1303 9.756049 5.554782 6.853912
1304 9.690388 4.983258 5.848131
1305 9.621359 4.521640 5.032660
1306 9.766162 5.833281 7.339778
1307 9.743530 5.700317 7.104357
1308 9.568202 4.173078 4.416708
1309 9.857009 6.864270 9.148784
1310 9.407222 2.852909 2.091633
1311 9.460544 3.412305 3.073950
1312 9.438792 3.576612 3.355219
1313 9.782723 6.733566 8.907269
1314 9.717282 6.233054 8.024915
1315 9.326246 2.743007 1.884964
1316 9.611637 5.299479 6.382298
1317 9.707828 6.404168 8.320397
1318 9.525101 4.825996 5.542815
1319 9.717799 6.580282 8.628336
1320 9.316371 3.052382 2.420599
1321 9.391900 3.731338 3.614963
1322 9.323212 3.194262 2.668449
1323 9.258701 2.620468 1.658945
1324 9.600007 5.983359 7.568308
1325 9.711068 7.013279 9.379379
1326 9.438145 4.669636 5.254263
1327 9.280015 3.329846 2.895650
1328 9.478756 5.153914 6.103593
1329 9.335555 3.912062 3.918047
1330 9.228133 2.952847 2.230534
1331 9.378771 4.307943 4.614289
1332 9.136036 2.514891 1.451702
1333 9.243270 3.488519 3.164222
1334 9.452748 5.484250 6.672519
1335 9.335770 4.485948 4.915238
1336 9.287321 4.105048 4.244011
1337 9.167413 3.134026 2.533561
1338 9.136224 2.856707 2.045657
1339 9.371388 4.995396 5.807332
1340 9.426124 5.654441 6.963066
1341 9.439966 5.835051 7.279569
1342 9.169371 3.636148 3.406396
1343 9.444483 6.148221 7.824590
1344 9.048547 2.750828 1.844679
1345 9.508096 6.875114 9.099935
1346 9.099226 3.251280 2.724064
1347 9.075329 3.046551 2.363704
1348 9.149193 3.806244 3.698030
1349 9.089662 3.389326 2.962069
1350 9.453568 6.704997 8.793771
1351 9.405858 6.344919 8.158866
1352 9.418649 6.516200 8.458956
1353 9.285614 5.353284 6.412535
1354 9.196487 4.828705 5.483769
1355 8.984238 2.965182 2.204650
1356 8.933269 2.645843 1.639898
1357 9.076581 3.984178 3.993109
1358 8.973527 3.157482 2.536701
1359 9.011676 3.509188 3.155204
1360 9.083638 4.268813 4.489041
1361 9.375963 7.061330 9.397858
1362 9.105547 4.644060 5.145297
1363 9.155905 5.185599 6.096012
1364 9.240770 6.000018 7.527560
1365 8.887546 2.874122 2.027672
1366 8.933339 3.328987 2.826901
1367 8.951023 3.734287 3.534555
1368 9.019239 4.437483 4.769618
1369 8.920492 3.608661 3.310352
1370 8.965290 4.137996 4.238782
1371 8.857143 3.245155 2.666456
1372 8.774093 2.543897 1.431882
1373 9.128217 5.786462 7.134662
1374 9.094024 5.573099 6.757303
1375 9.028433 5.005356 5.758102
1376 8.897080 3.879003 3.775540
1377 8.845241 3.436241 2.996167
1378 8.768528 2.773891 1.830425
1379 8.780347 3.000912 2.227176
1380 9.130730 6.270409 7.976026
1381 9.135470 6.630807 8.603150
1382 9.132000 6.823815 8.937836
1383 9.137664 6.983861 9.217020
1384 8.727091 3.346186 2.816771
1385 8.742641 3.537247 3.151763
1386 8.943817 5.388172 6.406845
1387 8.786268 4.015856 3.991829
1388 8.659205 2.908938 2.043866
1389 8.726231 3.674859 3.387686
1390 8.604844 2.670776 1.619504
1391 8.838600 4.816680 5.393443
1392 9.022884 6.471593 8.304668
1393 8.809262 4.595568 5.003559
1394 8.765621 4.306342 4.492553
1395 8.703210 3.791852 3.586498
1396 8.953111 6.143595 7.721222
1397 8.590487 3.039492 2.257376
1398 8.627557 3.443392 2.966360
1399 8.698693 4.157669 4.221243
1400 8.794955 5.197544 6.046740
1401 8.565099 3.152217 2.448314
1402 8.864257 5.960973 7.386671
1403 8.689391 4.452421 4.731581
1404 8.502262 2.813566 1.847706
1405 8.623519 3.909489 3.775437
1406 8.574841 3.612322 3.249655
1407 8.769714 5.757802 7.015313
1408 8.502592 3.528569 3.090114
1409 8.427261 2.949087 2.068628
1410 8.458334 3.254372 2.605100
1411 8.653036 5.011874 5.696599
1412 8.884953 7.131738 9.424934
1413 8.376253 2.575779 1.410096
1414 8.499520 3.722240 3.426028
1415 8.526276 4.036716 3.977632
1416 8.596239 4.705667 5.153533
1417 8.812062 6.730328 8.713328
1418 8.676799 5.569121 6.669446
1419 8.373685 3.079748 2.285262
1420 8.450630 3.824640 3.594467
1421 8.488550 4.280456 4.393821
1422 8.717265 6.360977 8.053177
1423 8.297281 2.724704 1.653536
1424 8.353339 3.352734 2.755638
1425 8.441850 4.155893 4.168327
1426 8.372396 3.631552 3.243791
1427 8.303397 3.195973 2.473570
1428 8.721740 6.960324 9.095432
1429 8.375948 3.950991 3.799518
1430 8.531176 5.379504 6.311728
1431 8.419722 4.417630 4.618813
1432 8.434190 4.565881 4.879212
1433 8.460703 4.870272 5.413247
1434 8.221584 2.863501 1.880016
1435 8.292876 3.731875 3.402679
1436 8.560595 6.180842 7.709789
1437 8.581661 6.579460 8.406490
1438 8.178844 2.997788 2.105052
1439 8.202606 3.301804 2.637901
1440 8.213103 3.434145 2.869886
1441 8.253924 3.868516 3.632541
1442 8.397315 5.191174 5.958528
1443 8.260344 4.071698 3.986823
1444 8.456872 5.958765 7.303800
1445 8.128101 3.130754 2.326242
1446 8.291651 4.726771 5.131111
1447 8.223204 4.198577 4.200075
1448 8.039771 2.645961 1.466758
1449 8.227148 4.325110 4.420695
1450 8.154554 3.801273 3.496425
1451 8.282574 5.027992 5.652731
1452 8.111826 3.544916 3.042706
1453 8.141437 3.987175 3.816892
1454 8.329127 5.749320 6.915099
1455 8.435483 6.833877 8.820190
1456 7.967491 2.790440 1.703774
1457 8.142777 4.472465 4.660362
1458 8.000541 3.232014 2.477438
1459 8.008068 3.359882 2.701074
1460 8.144407 4.601310 4.884550
1461 8.006123 3.466680 2.886261
1462 8.040888 3.901764 3.648981
1463 8.221809 5.544585 6.538543
1464 7.926989 2.932440 1.942647
1465 7.924970 3.076127 2.191916
1466 8.121833 4.875962 5.357390
1467 8.034031 4.109336 4.008314
1468 7.979393 3.635648 3.174663
1469 8.363436 7.140482 9.338950
1470 8.152183 5.355957 6.197287
1471 8.019873 4.239021 4.230900
1472 8.254464 6.426252 8.076808
1473 7.991742 4.360713 4.436887
1474 7.936759 4.000832 3.800912
1475 8.166100 6.172119 7.618099
1476 7.999315 4.740274 5.097858
1477 7.857331 3.552665 3.006796
1478 8.029967 5.172321 5.854502
1479 7.856972 3.723786 3.304056
1480 7.958969 5.018951 5.574242
1481 7.767803 3.308908 2.565891
1482 7.781583 3.436108 2.789579
1483 7.848874 4.200853 4.131407
1484 7.732443 3.176859 2.329591
1485 7.889374 4.591290 4.817663
1486 8.119908 6.693331 8.514762
1487 7.828885 4.087873 3.931222
1488 7.870007 4.461159 4.587797
1489 7.667397 2.723628 1.529465
1490 7.994903 5.933000 7.169407
1491 7.755902 3.811214 3.436358
1492 7.653994 3.029847 2.058932
1493 7.722110 3.641955 3.135709
1494 7.792902 4.317207 4.322717
1495 7.628213 2.873187 1.781728
1496 7.936336 5.704500 6.761018
1497 8.065400 6.965907 8.977799
1498 7.806699 4.875012 5.294601
1499 7.844432 5.322216 6.078956
1500 7.772944 4.723084 5.024072
1501 7.686464 4.175302 4.055502
1502 7.655978 3.905409 3.580639
1503 7.827199 5.503612 6.390794
1504 7.604401 3.533362 2.924186
1505 7.672495 4.406801 4.455030
1506 7.588406 3.731146 3.264742
1507 7.668688 4.540305 4.686260
1508 7.531396 3.401447 2.680816
1509 7.703130 5.033291 5.549524
1510 7.616359 4.272242 4.210338
1511 7.481993 3.264982 2.434119
1512 7.688075 5.181532 5.804178
1513 7.553825 4.004761 3.733448
1514 7.776917 6.135381 7.478761
1515 7.518538 3.826514 3.416891
1516 7.797840 6.362478 7.877409
1517 7.601410 4.654233 4.871162
1518 7.405783 3.128541 2.182262
1519 7.449023 3.635707 3.071872
1520 7.562159 4.797285 5.112104
1521 7.503997 4.356506 4.334951
1522 7.336425 2.968770 1.891198
1523 7.739357 6.601149 8.280763
1524 7.502360 4.487859 4.562864
1525 7.427492 3.939614 3.595743
1526 7.637301 5.850159 6.956091
1527 7.532918 4.931552 5.339727
1528 7.438285 4.103479 3.882560
1529 7.566760 5.363455 6.096739
1530 7.587465 5.654877 6.607113
1531 7.741032 7.150918 9.236333
1532 7.256273 2.809377 1.598697
1533 7.328237 3.509358 2.828902
1534 7.411276 4.596347 4.733695
1535 7.299156 3.744384 3.231626
1536 7.443248 5.080174 5.580565
1537 7.369838 4.438318 4.451075
1538 7.324924 4.046283 3.761186
1539 7.298208 3.856568 3.426366
1540 7.629813 6.875668 8.736499
1541 7.233693 3.372663 2.573046
1542 7.375500 4.711190 4.926298
1543 7.510628 6.033761 7.250531
1544 7.301242 4.179643 3.988309
1545 7.437565 5.513740 6.332800
1546 7.395328 5.234670 5.839711
1547 7.336540 4.843342 5.148359
1548 7.137692 3.235573 2.316223
1549 7.165512 3.625094 2.998428
1550 7.262518 4.535082 4.598385
1551 7.178066 3.971402 3.602586
1552 7.282574 4.971868 5.361209
1553 7.194211 4.281376 4.144311
1554 7.053664 3.076928 2.024269
1555 7.396885 6.263093 7.626937
1556 7.137486 4.097388 3.813618
1557 7.184478 4.634846 4.756589
1558 7.311754 5.788785 6.786293
1559 7.265979 5.381514 6.069763
1560 7.180636 4.759038 4.971632
1561 7.364520 6.472135 7.983876
1562 7.211925 5.130284 5.622756
1563 7.061804 3.863831 3.393122
1564 7.087902 4.203876 3.989026
1565 7.006947 3.488288 2.729960
1566 6.938353 2.922092 1.732864
1567 7.072312 4.364018 4.264254
1568 7.213641 5.652638 6.530699
1569 6.999638 3.749081 3.181679
1570 7.114875 4.875598 5.161401
1571 7.221688 5.954095 7.056053
1572 7.089224 5.023798 5.413928
1573 7.276013 6.711334 8.382322
1574 7.100608 5.262484 5.830862
1575 7.032574 4.707732 4.853761
1576 6.950191 4.011103 3.627358
1577 6.867517 3.355205 2.471673
1578 6.975667 4.467823 4.425870
1579 7.089556 5.523833 6.282822
1580 7.259170 7.093636 9.043319
1581 6.861262 3.617123 2.925552
1582 6.930638 4.272621 4.077963
1583 7.132218 6.151070 7.380946
1584 6.901955 4.136919 3.836610
1585 6.773178 3.188979 2.164546
1586 6.953296 4.807330 5.011435
1587 6.966488 4.945928 5.254815
1588 6.971969 5.135852 5.585877
1589 6.992908 5.398871 6.046946
1590 6.808261 3.908974 3.422371
1591 6.856190 4.388996 4.265725
1592 6.848748 4.564979 4.570058
1593 6.971161 5.838838 6.807185
1594 7.072711 6.909387 8.687005
1595 6.934710 5.699789 6.558510
1596 6.710380 3.781143 3.181270
1597 6.833230 4.886898 5.126394
1598 6.990893 6.370005 7.733935
1599 6.840751 5.046051 5.404388
1600 6.861083 5.232358 5.732048
1601 6.598816 3.042470 1.876154
1602 6.983020 6.583318 8.103047
1603 6.743110 4.481237 4.404059
1604 6.706148 4.204870 3.916690
1605 6.680943 4.057940 3.656503
1606 6.615247 3.489344 2.655801
1607 6.893859 6.018209 7.103851
1608 6.704120 4.329260 4.132430
1609 6.807007 5.336871 5.903151
1610 6.728203 4.661668 4.714672
1611 6.823578 5.595356 6.355493
1612 6.719204 4.975806 5.258754
1613 6.770150 5.482296 6.148682
1614 6.565159 3.658552 2.940090
1615 6.720401 5.143460 5.550291
1616 6.491445 3.310917 2.321759
1617 6.614284 4.574111 4.540438
1618 6.793290 6.207535 7.413301
1619 6.518427 3.923536 3.391444
1620 6.605140 4.762364 4.865760
1621 6.555940 4.441390 4.298512
1622 6.626496 5.252238 5.721079
1623 6.600617 5.067265 5.394661
1624 6.666428 5.764112 6.618225
1625 6.666068 5.906289 6.865193
1626 6.608582 5.394481 5.964756
1627 6.477710 4.316961 4.067134
1628 6.457288 4.182266 3.829134
1629 6.739058 6.781296 8.399711
1630 6.501678 4.675427 4.694633
1631 6.585110 5.628187 6.366274
1632 6.388078 4.050116 3.586093
1633 6.474739 4.859718 5.009619
1634 6.351544 3.811329 3.164102
1635 6.499710 5.165174 5.545204
1636 6.651491 6.562960 8.003356
1637 6.588970 6.072738 7.139447
1638 6.617250 6.385256 7.687946
1639 6.513045 5.522489 6.168639
1640 6.404477 4.551979 4.461280
1641 6.671144 7.023734 8.807781
1642 6.240785 3.169406 2.027249
1643 6.469457 5.317258 5.803586
1644 6.268061 3.634352 2.840402
1645 6.223959 3.460770 2.530241
1646 6.367158 4.780417 4.850958
1647 6.376980 4.957681 5.160867
1648 6.289945 4.435055 4.235900
1649 6.372609 5.245152 5.659511
1650 6.385122 5.422498 5.970084
1651 6.414815 5.730094 6.510304
1652 6.458905 6.234121 7.394623
1653 6.281326 4.668021 4.639014
1654 6.217664 4.302775 3.992035
1655 6.375429 5.852119 6.714686
1656 6.381127 5.970123 6.920827
1657 6.136696 3.972666 3.402749
1658 6.152991 4.157409 3.726909
1659 6.309626 5.634600 6.323972
1660 6.224268 4.892412 5.017833
1661 6.039601 3.279554 2.179605
1662 6.284291 5.517956 6.116383
1663 6.254386 5.344604 5.809376
1664 6.206746 5.017476 5.231736
1665 6.138567 4.558943 4.421791
1666 6.359753 6.723600 8.225874
1667 6.136459 4.792299 4.826846
1668 6.283868 6.113495 7.151072
1669 6.013410 3.805418 3.088232
1670 6.151634 5.109550 5.381027
1671 6.310359 6.543469 7.903308
1672 6.279761 6.384524 7.621198
1673 6.337994 6.928465 8.577614
1674 6.157070 5.438396 5.953463
1675 6.176884 5.768093 6.530168
1676 6.025128 4.691497 4.630101
1677 6.121821 5.592695 6.214726
1678 5.899284 3.625621 2.753686
1679 5.987976 4.441243 4.188067
1680 6.065641 5.202538 5.525914
1681 6.011870 4.953054 5.081994
1682 6.123887 6.008057 6.936833
1683 5.929632 4.303765 3.937876
1684 5.826738 3.396097 2.340806
1685 6.136286 6.245893 7.352487
1686 6.096140 5.889926 6.726193
1687 6.032015 5.519231 6.069656
1688 6.049306 5.693936 6.376566
1689 5.871263 4.126204 3.618033
1690 5.948595 5.062780 5.260370
1691 5.921620 4.851621 4.888241
1692 5.932820 5.289205 5.650732
1693 5.843611 4.580674 4.402326
1694 5.765110 3.971138 3.328005
1695 5.894606 5.169512 5.435348
1696 5.986614 6.139511 7.138607
1697 5.932207 5.803710 6.544586
1698 5.910282 5.619258 6.219840
1699 5.976742 6.366670 7.531389
1700 6.005323 6.656739 8.040941
1701 6.025164 6.839006 8.361485
1702 5.987707 6.505611 7.774932
1703 5.778229 4.731228 4.651236
1704 5.893832 6.007591 6.891392
1705 5.609582 3.514990 2.505257
1706 5.618842 3.800791 3.003644
1707 5.781663 5.362839 5.749350
1708 5.818835 5.714058 6.366817
1709 5.734240 4.995746 5.102311
1710 5.654481 4.293308 3.866324
1711 5.827779 5.905360 6.700947
1712 5.644343 4.460415 4.154712
1713 5.753705 5.459576 5.912008
1714 5.716127 5.249299 5.539355
1715 5.671112 4.874476 4.879352
1716 5.814637 6.263688 7.321005
1717 5.683080 5.120300 5.308802
1718 5.758879 6.120829 7.061965
1719 5.708892 5.802188 6.498617
1720 5.500232 4.156397 3.598512
1721 5.539798 4.626889 4.423684
1722 5.717469 6.413077 7.561723
1723 5.618238 5.550271 6.043313
1724 5.659680 6.011458 6.852683
1725 5.742513 6.758178 8.166206
1726 5.393596 3.633243 2.668824
1727 5.702517 6.550125 7.796947
1728 5.622615 5.888195 6.631319
1729 5.488049 4.778993 4.677931
1730 5.558930 5.440664 5.841361
1731 5.533042 5.330621 5.645136
1732 5.365743 4.002867 3.305656
1733 5.600136 6.219421 7.202475
1734 5.443173 4.962787 4.988575
1735 5.466808 5.209827 5.422401
1736 5.494919 5.643131 6.180736
1737 5.422567 5.081952 5.191630
1738 5.335577 4.364569 3.928274
1739 5.520189 6.119739 7.013764
1740 5.499939 5.953409 6.720830
1741 5.528779 6.331627 7.383592
1742 5.554197 6.658148 7.955866
1743 5.402439 5.543347 5.989416
1744 5.269726 4.543068 4.225647
1745 5.180936 3.816278 2.945597
1746 5.415824 6.032742 6.842355
1747 5.375270 5.735082 6.317293
1748 5.454385 6.453065 7.580163
1749 5.324806 5.424667 5.768143
1750 5.258593 4.880573 4.809915
1751 5.371055 6.238006 7.190324
1752 5.261034 5.300933 5.540779
1753 5.191751 4.713816 4.507201
1754 5.115298 4.225404 3.643735
1755 5.370915 6.560792 7.751149
1756 5.316135 6.119102 6.973069
1757 5.253559 5.653322 6.151618
1758 5.263816 5.818903 6.441311
1759 5.171893 5.167811 5.292181
1760 5.277365 6.355795 7.376809
1761 5.169746 5.539675 5.937892
1762 5.093888 5.028731 5.035392
1763 5.180582 5.909458 6.582507
1764 4.966283 4.001029 3.224965
1765 5.199728 6.197649 7.086964
1766 4.963284 4.449072 4.002874
1767 5.183488 6.461234 7.541802
1768 5.056514 5.413533 5.696748
1769 5.093923 5.759528 6.305185
1770 4.968343 4.868710 4.732993
1771 5.124901 6.286955 7.227619
1772 5.069316 5.995163 6.709835
1773 4.960757 5.284814 5.454516
1774 4.999021 5.658637 6.111472
1775 4.871494 4.650336 4.334770
1776 5.005986 5.869455 6.479127
1777 5.013489 6.370934 7.351921
1778 4.767937 4.171745 3.483109
1779 4.915638 5.535485 5.881313
1780 4.954166 6.093219 6.857872
1781 4.830800 5.151952 5.198451
1782 4.880930 5.987553 6.660064
1783 4.808322 5.778897 6.283431
1784 4.648355 4.361641 3.789862
1785 4.694005 4.825361 4.604448
1786 4.706285 5.023220 4.950619
1787 4.834989 6.192069 7.006507
1788 4.739340 5.404283 5.619143
1789 4.777538 5.889187 6.469091
1790 4.728584 5.667656 6.074676
1791 4.741926 6.098816 6.826421
1792 4.652158 5.534711 5.828851
1793 4.613102 5.275053 5.370109
1794 4.523291 4.560243 4.110677
1795 4.643038 5.999726 6.635063
1796 4.529879 5.886336 6.416090
1797 4.403121 4.751075 4.418940
1798 4.486855 5.772153 6.209347
1799 4.373702 4.962964 4.781398
1800 4.436421 5.638306 5.966998
1801 4.347344 5.152805 5.106141
1802 4.377488 5.481905 5.683811
1803 4.322071 5.334832 5.417515
1804 1.075017 1.000000 5.439642
1805 1.202664 1.000000 5.596817
1806 1.330311 1.000000 5.753991
1807 1.457958 1.000000 5.911165
1808 1.000000 1.097434 5.323958
1809 1.585605 1.000000 6.068339
1810 1.713252 1.000000 6.225514
1811 1.840899 1.000000 6.382688
1812 1.968546 1.000000 6.539862
1813 1.122733 1.179715 5.455393
1814 1.261738 1.154111 5.632680
1815 2.096193 1.000000 6.697037
1816 1.401827 1.153187 5.805395
1817 2.223840 1.000000 6.854211
1818 1.537602 1.156069 5.971889
1819 2.351487 1.000000 7.011385
1820 2.479134 1.000000 7.168560
1821 1.670307 1.163364 6.133545
1822 1.000000 1.293684 5.276999
1823 2.606781 1.000000 7.325734
1824 2.734428 1.000000 7.482908
1825 1.799896 1.185364 6.287846
1826 2.037243 1.151147 6.588284
1827 1.916276 1.183616 6.431565
1828 2.862075 1.000000 7.640082
1829 1.223132 1.332563 5.542444
1830 2.179646 1.149972 6.763909
1831 2.989722 1.000000 7.797257
1832 1.361775 1.324703 5.715038
1833 1.100588 1.383529 5.379357
1834 3.117368 1.000000 7.954431
1835 2.316698 1.158295 6.930672
1836 1.495991 1.333465 5.878205
1837 3.245015 1.000000 8.111605
1838 2.552804 1.137711 7.226319
1839 3.372662 1.000000 8.268780
1840 1.623684 1.345480 6.032561
1841 1.000000 1.489933 5.230041
1842 2.690450 1.176414 7.386546
1843 1.751961 1.366663 6.185443
1844 2.813291 1.163525 7.540886
1845 2.119827 1.307199 6.652631
1846 2.948419 1.155695 7.709145
1847 2.004600 1.364443 6.497052
1848 3.097439 1.153158 7.893244
1849 2.258638 1.331360 6.817770
1850 1.209121 1.538857 5.475829
1851 1.342013 1.515194 5.645125
1852 3.246809 1.147249 8.078580
1853 1.888521 1.414648 6.342110
1854 2.594012 1.294923 7.239443
1855 2.386924 1.346389 6.972136
1856 1.098860 1.597915 5.325932
1857 1.493829 1.523956 5.829961
1858 3.383770 1.160787 8.243984
1859 3.510203 1.139600 8.404732
1860 1.638210 1.545702 6.002538
1861 1.000000 1.686183 5.183083
1862 3.045137 1.300937 7.793483
1863 2.895353 1.333426 7.601277
1864 2.763958 1.367008 7.431452
1865 3.209624 1.292910 7.997940
1866 2.167993 1.501824 6.665369
1867 1.788587 1.584205 6.178488
1868 2.653220 1.440029 7.277626
1869 2.050938 1.579119 6.502742
1870 3.367907 1.323675 8.185476
1871 2.314548 1.531647 6.838690
1872 1.283563 1.739256 5.519540
1873 1.178675 1.767341 5.383670
1874 1.415664 1.722508 5.686206
1875 3.522934 1.321304 8.376931
1876 2.446570 1.532045 7.001156
1877 3.669903 1.301693 8.562590
1878 1.083634 1.821699 5.253637
1879 1.939891 1.669258 6.344440
1880 3.164959 1.450985 7.905120
1881 1.558620 1.768113 5.851319
1882 3.015010 1.489629 7.711237
1883 1.000000 1.882432 5.136124
1884 1.698669 1.786241 6.019426
1885 2.900671 1.564401 7.552558
1886 2.785070 1.587798 7.404618
1887 3.321729 1.486083 8.089755
1888 2.680278 1.623897 7.266948
1889 2.230669 1.717399 6.690961
1890 3.491670 1.499793 8.295726
1891 2.389283 1.715887 6.886628
1892 1.840897 1.850261 6.179236
1893 1.408209 1.935140 5.626149
1894 1.178597 1.982703 5.332041
1895 2.510498 1.725381 7.033611
1896 3.666411 1.500807 8.510645
1897 1.289796 1.982123 5.469102
1898 3.851498 1.486007 8.742088
1899 2.118758 1.826700 6.527010
1900 3.128481 1.654304 7.811553
1901 1.094975 2.050439 5.212868
1902 1.000000 2.078682 5.089166
1903 1.537393 2.011148 5.767029
1904 3.277563 1.680055 7.988958
1905 2.755921 1.800056 7.317936
1906 1.997630 1.947535 6.348949
1907 2.339048 1.884851 6.784343
1908 2.878873 1.787348 7.472371
1909 3.014165 1.766832 7.643868
1910 3.441045 1.691841 8.187438
1911 1.695173 2.042919 5.953704
1912 3.612498 1.702768 8.395936
1913 2.479234 1.932879 6.945465
1914 2.585365 1.913531 7.080775
1915 1.242960 2.195795 5.360305
1916 3.795362 1.703509 8.620924
1917 1.402464 2.178216 5.560912
1918 1.122169 2.234157 5.202393
1919 2.262584 2.016134 6.658778
1920 3.983263 1.692193 8.854997
1921 1.000000 2.274931 5.042208
1922 1.859913 2.124685 6.136987
1923 3.196449 1.898690 7.836767
1924 2.814994 1.979828 7.347659
1925 2.158472 2.125455 6.504424
1926 2.945546 1.983055 7.507639
1927 1.569188 2.255446 5.747723
1928 3.373018 1.912157 8.050957
1929 2.432062 2.101306 6.847079
1930 3.082950 1.987570 7.675747
1931 2.606766 2.103313 7.061716
1932 3.551008 1.925031 8.267040
1933 1.102198 2.411015 5.135484
1934 1.342179 2.374405 5.439737
1935 2.025719 2.252769 6.310500
1936 3.741121 1.928957 8.500191
1937 1.000000 2.471181 4.995249
1938 1.223046 2.436775 5.278122
1939 1.734314 2.340627 5.930664
1940 2.347138 2.262587 6.703920
1941 2.871578 2.161236 7.373925
1942 3.934550 1.955609 8.731986
1943 1.490315 2.436227 5.607348
1944 4.131872 1.924737 8.982340
1945 2.527310 2.240936 6.930951
1946 3.281803 2.129558 7.886623
1947 3.006181 2.187962 7.533269
1948 2.689530 2.274625 7.122634
1949 3.145884 2.193429 7.703980
1950 1.115882 2.597051 5.107819
1951 2.209993 2.386842 6.505318
1952 1.899560 2.465473 6.104262
1953 3.471414 2.167872 8.110927
1954 1.000000 2.667430 4.948291
1955 1.369170 2.604831 5.417836
1956 3.674945 2.163977 8.362471
1957 1.663265 2.556576 5.791507
1958 1.241393 2.655837 5.248297
1959 2.934955 2.344169 7.408190
1960 2.623043 2.409172 7.008573
1961 2.484509 2.439522 6.830731
1962 2.074103 2.550673 6.298794
1963 3.870785 2.214574 8.591506
1964 1.522954 2.680322 5.589130
1965 2.354367 2.535894 6.647425
1966 3.080031 2.396026 7.574417
1967 1.114889 2.782942 5.062116
1968 4.295744 2.181164 9.122761
1969 3.236482 2.388850 7.768775
1970 3.383145 2.366330 7.954753
1971 2.756439 2.488294 7.153893
1972 4.085634 2.236711 8.850758
1973 1.841196 2.699207 5.976469
1974 1.000000 2.863680 4.901332
1975 1.239046 2.855662 5.197593
1976 2.978318 2.525019 7.418310
1977 3.597572 2.404716 8.209597
1978 1.384761 2.840666 5.380603
1979 2.643430 2.601233 6.987719
1980 2.223802 2.698499 6.447749
1981 2.509352 2.680556 6.803646
1982 1.698765 2.848199 5.765440
1983 1.101874 2.968558 5.001676
1984 3.187810 2.581059 7.662853
1985 1.539154 2.911582 5.553742
1986 3.069338 2.626804 7.506030
1987 3.783765 2.490805 8.418260
1988 2.790011 2.688519 7.147322
1989 2.038029 2.836820 6.185906
1990 3.500466 2.560887 8.052659
1991 1.000000 3.059929 4.854374
1992 3.339130 2.621767 7.839435
1993 2.379661 2.812092 6.612481
1994 4.394854 2.421062 9.187394
1995 1.213954 3.044316 5.121556
1996 3.989827 2.528339 8.663008
1997 1.353571 3.058375 5.290106
1998 2.658625 2.805949 6.957445
1999 1.876006 3.018986 5.942816
2000 4.215532 2.564865 8.932183
2001 3.070487 2.788694 7.468708
2002 1.121793 3.180782 4.975423
2003 2.881218 2.845392 7.222091
2004 1.504645 3.113261 5.462993
2005 3.211720 2.786626 7.643106
2006 2.216228 2.983992 6.370111
2007 2.542055 2.939652 6.781918
2008 3.688947 2.722714 8.246018
2009 1.000000 3.256178 4.807416
2010 1.689597 3.122647 5.688482
2011 2.768119 2.922170 7.064459
2012 3.511143 2.782048 8.012887
2013 1.271578 3.246187 5.144206
2014 3.358067 2.851155 7.807866
2015 2.403199 3.070015 6.579749
2016 3.888890 2.808708 8.471635
2017 4.505596 2.689117 9.259614
2018 1.096282 3.357317 4.901769
2019 3.136522 2.962227 7.508496
2020 1.434672 3.297998 5.332630
2021 2.681968 3.073171 6.922247
2022 2.881349 3.035496 7.176764
2023 2.057831 3.201351 6.123064
2024 3.272274 3.008725 7.664524
2025 1.000000 3.452428 4.760457
2026 1.210009 3.411946 5.028733
2027 1.621672 3.344776 5.551694
2028 4.105118 2.864302 8.724579
2029 1.842143 3.304827 5.832723
2030 3.508712 3.002842 7.957062
2031 3.676701 2.979434 8.169512
2032 2.976509 3.118386 7.274103
2033 2.269055 3.276594 6.365144
2034 2.580101 3.216907 6.762424
2035 1.365270 3.465142 5.207180
2036 2.802357 3.192968 7.041819
2037 4.344726 2.930431 9.003789
2038 1.114886 3.558166 4.876618
2039 3.413522 3.112412 7.813636
2040 3.193079 3.156264 7.531706
2041 3.840710 3.069441 8.349923
2042 2.453392 3.339668 6.577030
2043 1.535809 3.536342 5.400131
2044 1.000000 3.648677 4.713499
2045 2.925293 3.281810 7.171935
2046 1.284732 3.612284 5.072803
2047 1.750233 3.541221 5.662988
2048 3.331998 3.240689 7.682559
2049 2.721158 3.363958 6.900923
2050 4.632387 2.996017 9.342299
2051 3.607846 3.206538 8.030388
2052 3.042682 3.324513 7.306261
2053 1.973653 3.538250 5.938800
2054 4.023815 3.146717 8.556893
2055 2.175556 3.523700 6.190890
2056 1.205567 3.712865 4.951260
2057 1.094194 3.766610 4.801263
2058 1.440700 3.708500 5.241827
2059 3.251734 3.356838 7.555936
2060 3.500503 3.324190 7.870062
2061 2.885678 3.446062 7.083854
2062 3.771977 3.292218 8.211984
2063 2.598084 3.521663 6.711645
2064 4.234559 3.209553 8.801351
2065 1.000000 3.844927 4.666541
2066 2.399057 3.579763 6.452677
2067 1.643499 3.742406 5.483424
2068 3.039059 3.493221 7.261432
2069 3.403960 3.444521 7.722395
2070 1.344281 3.866609 5.085272
2071 2.796272 3.596915 6.937671
2072 1.214978 3.910168 4.915636
2073 1.861064 3.794029 5.738965
2074 4.487165 3.288656 9.093462
2075 3.943869 3.408451 8.395826
2076 3.670508 3.466368 8.045373
2077 3.315660 3.546491 7.589269
2078 1.107658 3.978109 4.767234
2079 1.530567 3.923521 5.301032
2080 1.000000 4.041176 4.619582
2081 2.960297 3.661496 7.124186
2082 2.287267 3.801744 6.261912
2083 3.553052 3.563964 7.877394
2084 3.116221 3.650466 7.318817
2085 2.698938 3.743118 6.782839
2086 2.073033 3.869849 5.981825
2087 4.130258 3.485404 8.606917
2088 2.533575 3.807727 6.563764
2089 1.728348 3.993834 5.527740
2090 1.258602 4.090135 4.926289
2091 3.836402 3.595893 8.218650
2092 3.455666 3.671204 7.731820
2093 1.418014 4.073751 5.126497
2094 4.735646 3.434781 9.364457
2095 1.116029 4.162753 4.733360
2096 4.354434 3.537038 8.870595
2097 3.367864 3.747000 7.605572
2098 2.872855 3.848845 6.971688
2099 1.000000 4.237426 4.572624
2100 3.046811 3.841137 7.187727
2101 3.697199 3.725279 8.016286
2102 3.176451 3.834965 7.348832
2103 1.917029 4.111471 5.731919
2104 1.617856 4.173086 5.348798
2105 2.435565 4.021142 6.392016
2106 3.573109 3.816404 7.841687
2107 2.721687 3.985800 6.752781
2108 4.020627 3.737876 8.411515
2109 1.218438 4.300037 4.826609
2110 1.345747 4.284468 4.987093
2111 3.451524 3.914221 7.668572
2112 2.260303 4.147603 6.145953
2113 1.110901 4.373940 4.676513
2114 1.501149 4.298684 5.175042
2115 4.601115 3.705857 9.133944
2116 3.855570 3.860779 8.178869
2117 3.001513 4.027051 7.087466
2118 4.228231 3.792607 8.654047
2119 1.000000 4.433675 4.525665
2120 3.247602 4.005685 7.395593
2121 2.598280 4.156463 6.559991
2122 2.085943 4.258955 5.904616
2123 1.797387 4.316403 5.535565
2124 3.141935 4.064632 7.251378
2125 2.885216 4.124463 6.920959
2126 3.727922 3.977701 7.993717
2127 3.590912 4.025569 7.813560
2128 4.442090 3.876598 8.897278
2129 1.265578 4.500555 4.836674
2130 1.429788 4.493416 5.040577
2131 1.123871 4.562075 4.647467
2132 1.632736 4.477220 5.294347
2133 3.990896 4.024117 8.306416
2134 3.500426 4.120308 7.679473
2135 4.840274 3.879364 9.386908
2136 2.775675 4.281269 6.748558
2137 1.000000 4.629925 4.478707
2138 3.294398 4.190410 7.409013
2139 2.438772 4.364175 6.313885
2140 4.164530 4.037049 8.517121
2141 3.060085 4.259809 7.103892
2142 1.995779 4.514314 5.732493
2143 3.864325 4.154780 8.119301
2144 3.198117 4.290385 7.266538
2145 3.690005 4.197250 7.894495
2146 1.247121 4.709186 4.764027
2147 1.795757 4.604675 5.464580
2148 2.958910 4.395205 6.946917
2149 1.110866 4.755233 4.585234
2150 1.392231 4.700725 4.944728
2151 2.641142 4.468483 6.538109
2152 4.379963 4.131832 8.759708
2153 1.560935 4.681110 5.157151
2154 3.574497 4.293730 7.729183
2155 2.260361 4.554225 6.048729
2156 1.000000 4.826174 4.431749
2157 3.359428 4.368159 7.446554
2158 4.636062 4.129538 9.075597
2159 4.061899 4.278981 8.332859
2160 3.815034 4.349963 8.011905
2161 2.834297 4.552078 6.755942
2162 3.271024 4.482607 7.310316
2163 3.134740 4.512981 7.135239
2164 1.230053 4.906487 4.695800
2165 3.705137 4.434902 7.856263
2166 4.251647 4.330496 8.554174
2167 1.107170 4.961143 4.531414
2168 1.712613 4.846570 5.304323
2169 2.505773 4.695327 6.317146
2170 1.381903 4.919635 4.879631
2171 3.957477 4.429746 8.168208
2172 3.611861 4.505783 7.724449
2173 1.932098 4.835432 5.577245
2174 1.000000 5.022424 4.384790
2175 3.415352 4.558747 7.469811
2176 1.530490 4.928127 5.060556
2177 3.022994 4.657967 6.962951
2178 2.147611 4.835315 5.842638
2179 4.873557 4.330910 9.319845
2180 4.484578 4.422527 8.818966
2181 2.713426 4.780747 6.552395
2182 3.293738 4.681366 7.290725
2183 3.829208 4.589834 7.971962
2184 4.137577 4.556178 8.359716
2185 1.217511 5.124232 4.628255
2186 1.347142 5.104914 4.792495
2187 2.898939 4.818762 6.771724
2188 1.102269 5.173458 4.474577
2189 3.704677 4.673224 7.798670
2190 3.441632 4.730976 7.460959
2191 2.404788 4.935508 6.135332
2192 3.176472 4.785870 7.121327
2193 1.000000 5.218673 4.337832
2194 4.687011 4.515498 9.045979
2195 3.978745 4.667690 8.137461
2196 4.325177 4.600975 8.579993
2197 1.649088 5.127061 5.158988
2198 1.840684 5.104509 5.400300
2199 1.492049 5.206234 4.946678
2200 2.047431 5.148601 5.644322
2201 3.050031 4.955340 6.925087
2202 3.349004 4.898615 7.306792
2203 3.507508 4.868750 7.509107
2204 3.856310 4.813965 7.951703
2205 2.647766 5.052163 6.406603
2206 1.217171 5.341058 4.575955
2207 1.349804 5.325250 4.743051
2208 3.744284 4.866402 7.801216
2209 1.108686 5.387849 4.431179
2210 4.135035 4.801149 8.297969
2211 1.000000 5.414922 4.290874
2212 2.861617 5.081224 6.662968
2213 2.275949 5.202579 5.912785
2214 4.499078 4.772494 8.753080
2215 3.231445 5.031754 7.130182
2216 4.001721 4.911653 8.107376
2217 4.296156 4.860770 8.482094
2218 1.756946 5.369000 5.233904
2219 3.576362 5.031659 7.554907
2220 4.906342 4.775703 9.253785
2221 3.456962 5.059473 7.401232
2222 1.603911 5.437144 5.029164
2223 4.703034 4.848088 8.986127
2224 1.449191 5.498648 4.823938
2225 3.802237 5.055109 7.827421
2226 1.282543 5.547428 4.607068
2227 1.133672 5.577654 4.416529
2228 2.535812 5.305367 6.208165
2229 3.113211 5.194287 6.945707
2230 1.000000 5.611172 4.243915
2231 3.913949 5.046584 7.967015
2232 1.937740 5.439166 5.439730
2233 3.360489 5.178228 7.254028
2234 4.145206 5.050420 8.250848
2235 2.972885 5.315925 6.743815
2236 3.620633 5.199993 7.569141
2237 2.149954 5.491248 5.688572
2238 2.776943 5.392350 6.484261
2239 4.444660 5.078892 8.612759
2240 3.513960 5.277102 7.419341
2241 4.033348 5.180631 8.081958
2242 4.286776 5.138343 8.404128
2243 3.266925 5.337794 7.100640
2244 1.120259 5.770797 4.353798
2245 1.000000 5.807421 4.196957
2246 4.627708 5.102821 8.832424
2247 1.259276 5.764911 4.526380
2248 3.885876 5.254516 7.882694
2249 1.416385 5.739306 4.725959
2250 1.784311 5.669818 5.195620
2251 1.590572 5.711651 4.947056
2252 2.389449 5.584670 5.961114
2253 3.672166 5.376215 7.590428
2254 4.871245 5.150401 9.120911
2255 3.420256 5.439697 7.265056
2256 3.144723 5.496028 6.912308
2257 4.183647 5.327261 8.231939
2258 2.016514 5.765806 5.458569
2259 4.028690 5.380798 8.028327
2260 1.103176 5.964742 4.286355
2261 2.639379 5.667675 6.248996
2262 3.571732 5.495842 7.438137
2263 1.000000 6.003671 4.149998
2264 2.979072 5.620100 6.678651
2265 4.369829 5.370781 8.450775
2266 1.227129 5.983646 4.434458
2267 3.931909 5.464709 7.889081
2268 1.375722 5.978703 4.618606
2269 4.543977 5.375531 8.664071
2270 3.311843 5.628965 7.086278
2271 1.537026 5.980814 4.816718
2272 3.730830 5.556121 7.619614
2273 2.236007 5.854051 5.707719
2274 1.711765 5.957311 5.037502
2275 4.751388 5.377042 8.919099
2276 2.829418 5.778483 6.456481
2277 1.903105 5.969289 5.270237
2278 4.123898 5.544377 8.106417
2279 3.471125 5.686170 7.268716
2280 1.135958 6.163084 4.279261
2281 1.000000 6.199920 4.103040
2282 4.276942 5.563617 8.290260
2283 3.631921 5.692840 7.465112
2284 3.165730 5.790658 6.867676
2285 4.014328 5.643975 7.947670
2286 1.310303 6.194290 4.486470
2287 2.525173 5.965123 6.037199
2288 3.786859 5.741073 7.644350
2289 4.455497 5.637376 8.492470
2290 1.476434 6.233174 4.681725
2291 4.630943 5.654735 8.704346
2292 3.355029 5.908329 7.072607
2293 3.002034 5.979436 6.620942
2294 4.826442 5.628712 8.951294
2295 1.081001 6.356553 4.165300
2296 4.182683 5.754233 8.128586
2297 1.664422 6.244385 4.910517
2298 2.096525 6.164526 5.461683
2299 1.229775 6.344177 4.351449
2300 3.545026 5.894983 7.309747
2301 1.856186 6.243292 5.146901
2302 3.693732 5.891248 7.493746
2303 4.070235 5.837405 7.970226
2304 2.335535 6.176680 5.753073
2305 2.762590 6.107733 6.295411
2306 4.346050 5.801387 8.318461
2307 3.857005 5.916034 7.688857
2308 3.194664 6.083276 6.833286
2309 1.393337 6.454344 4.526486
2310 3.487826 6.099500 7.190380
2311 1.225745 6.539981 4.299635
2312 3.779154 6.050991 7.560705
2313 1.595691 6.483651 4.768635
2314 4.540280 5.913177 8.530871
2315 4.235939 5.977037 8.140850
2316 4.120340 6.026061 7.986779
2317 4.743112 5.913994 8.780427
2318 3.648311 6.135175 7.379452
2319 2.020488 6.465302 5.296088
2320 2.986395 6.286060 6.528317
2321 4.390869 6.015762 8.322352
2322 3.919534 6.116692 7.717836
2323 3.358335 6.239063 6.997540
2324 2.569265 6.395235 5.988573
2325 1.810932 6.547124 5.018479
2326 2.291659 6.497851 5.622197
2327 1.366256 6.718045 4.430042
2328 3.810977 6.244965 7.553475
2329 1.519177 6.695500 4.623731
2330 3.198687 6.395908 6.763433
2331 4.188370 6.206953 8.027262
2332 3.539904 6.354403 7.193511
2333 4.322653 6.203416 8.193455
2334 4.496112 6.189567 8.410351
2335 4.672210 6.156726 8.635043
2336 2.815188 6.520924 6.261309
2337 3.968544 6.304461 7.733255
2338 3.696382 6.382877 7.379373
2339 1.713213 6.783724 4.841541
2340 2.113130 6.742170 5.343911
2341 3.864065 6.435017 7.573368
2342 3.413579 6.546444 6.992013
2343 4.258977 6.399120 8.068220
2344 3.054726 6.640440 6.527659
2345 4.420160 6.396660 8.267277
2346 4.027107 6.484924 7.762183
2347 1.925554 6.895863 5.076169
2348 4.605592 6.384795 8.498443
2349 1.568940 6.974899 4.618151
2350 2.363915 6.838828 5.629579
2351 3.598184 6.619447 7.201853
2352 2.627169 6.814427 5.959568
2353 3.761627 6.612103 7.404861
2354 3.280886 6.714244 6.788475
2355 3.925001 6.615826 7.605137
2356 4.324640 6.582712 8.105143
2357 1.743345 7.113000 4.799855
2358 4.089673 6.662548 7.796721
2359 4.482740 6.600769 8.295495
2360 2.899501 6.919171 6.269833
2361 2.177488 7.081976 5.341848
2362 3.512555 6.868359 7.036857
2363 3.993730 6.787346 7.648722
2364 3.846066 6.826660 7.457494
2365 3.694806 6.871261 7.260572
2366 3.143444 6.981461 6.555300
2367 4.382229 6.777469 8.129453
2368 1.925497 7.257234 4.989630
2369 4.155076 6.841371 7.834463
2370 3.361692 7.002800 6.818928
2371 2.482549 7.175789 5.695028
2372 4.067488 6.953636 7.699752
2373 3.940817 7.020649 7.527745
2374 2.782615 7.250882 6.046537
2375 4.257670 6.996443 7.923685
2376 2.120610 7.411732 5.192909
2377 3.813360 7.110728 7.349250
2378 3.661819 7.152526 7.152654
2379 4.166328 7.082877 7.790532
2380 3.060277 7.305300 6.375407
2381 3.507381 7.229502 6.944072
2382 2.299110 7.481773 5.395941
2383 3.296403 7.303163 6.666665
2384 4.055498 7.187751 7.628970
2385 2.493855 7.558187 5.617449
2386 3.937225 7.299668 7.456558
2387 3.804538 7.425225 7.263135
2388 2.701349 7.639605 5.853459
2389 3.654746 7.487128 7.063881
2390 2.995364 7.641961 6.214923
2391 3.477852 7.560230 6.828576
2392 3.274666 7.644199 6.558297
1 1 tri 351 333 300
2 1 tri 520 501 547
3 1 tri 263 246 323
4 1 tri 622 581 589
5 1 tri 504 511 474
6 1 tri 146 171 147
7 1 tri 370 383 417
8 1 tri 630 589 599
9 1 tri 195 163 157
10 1 tri 291 256 286
11 1 tri 242 218 205
12 1 tri 444 420 397
13 1 tri 517 511 552
14 1 tri 612 590 616
15 1 tri 862 879 894
16 1 tri 476 456 500
17 1 tri 703 680 718
18 1 tri 686 725 722
19 1 tri 699 708 666
20 1 tri 722 725 755
21 1 tri 963 952 937
22 1 tri 857 879 839
23 1 tri 593 579 625
24 1 tri 497 531 504
25 1 tri 674 684 657
26 1 tri 653 640 685
27 1 tri 696 735 741
28 1 tri 500 513 476
29 1 tri 682 695 706
30 1 tri 667 695 682
31 1 tri 77 98 81
32 1 tri 202 228 197
33 1 tri 383 434 417
34 1 tri 403 374 448
35 1 tri 640 624 675
36 1 tri 289 238 269
37 1 tri 698 662 694
38 1 tri 350 321 378
39 1 tri 448 419 473
40 1 tri 626 620 647
41 1 tri 523 489 549
42 1 tri 191 231 216
43 1 tri 397 352 391
44 1 tri 145 178 158
45 1 tri 339 291 329
46 1 tri 626 604 595
47 1 tri 500 456 472
48 1 tri 11 12 24
49 1 tri 81 86 65
50 1 tri 170 180 202
51 1 tri 192 160 168
52 1 tri 34 45 26
53 1 tri 184 188 153
54 1 tri 158 128 145
55 1 tri 221 175 211
56 1 tri 76 97 70
57 1 tri 273 288 322
58 1 tri 243 280 232
59 1 tri 346 389 386
60 1 tri 415 453 459
61 1 tri 24 29 40
62 1 tri 163 136 130
63 1 tri 61 41 42
64 1 tri 95 97 123
65 1 tri 111 142 139
66 1 tri 454 421 413
67 1 tri 441 451 399
68 1 tri 130 106 99
69 1 tri 577 583 617
70 1 tri 511 517 479
71 1 tri 652 654 619
72 1 tri 646 629 601
73 1 tri 544 499 490
74 1 tri 439 441 395
75 1 tri 365 407 376
76 1 tri 719 698 728
77 1 tri 563 540 507
78 1 tri 688 723 700
79 1 tri 819 849 854
80 1 tri 839 879 862
81 1 tri 691 714 690
82 1 tri 332 380 368
83 1 tri 696 741 727
84 1 tri 747 699 720
85 1 tri 699 648 681
86 1 tri 779 759 727
87 1 tri 634 652 614
88 1 tri 754 767 733
89 1 tri 829 804 838
90 1 tri 703 737 724
91 1 tri 815 848 838
92 1 tri 904 919 935
93 1 tri 964 992 983
94 1 tri 909 882 917
95 1 tri 846 895 869
96 1 tri 710 746 713
97 1 tri 1018 1014 1002
98 1 tri 1050 1048 1037
99 1 tri 939 965 932
100 1 tri 1035 1048 1042
101 1 tri 1046 1053 1039
102 1 tri 902 918 876
103 1 tri 1061 1052 1057
104 1 tri 1054 1043 1049
105 1 tri 1044 1047 1032
106 1 tri 594 569 555
107 1 tri 709 729 731
108 1 tri 262 272 307
109 1 tri 709 687 706
110 1 tri 657 637 626
111 1 tri 702 684 674
112 1 tri 1023 1028 1008
113 1 tri 1019 1024 1037
114 1 tri 771 728 730
115 1 tri 721 685 675
116 1 tri 584 550 521
117 1 tri 874 856 832
118 1 tri 707 736 716
119 1 tri 832 831 874
120 1 tri 769 773 751
121 1 tri 916 874 870
122 1 tri 970 957 990
123 1 tri 744 729 716
124 1 tri 916 905 874
125 1 tri 771 750 728
126 1 tri 113 126 104
127 1 tri 80 60 71
128 1 tri 100 98 119
129 1 tri 144 173 149
130 1 tri 116 110 137
131 1 tri 36 45 60
132 1 tri 89 80 71
133 1 tri 93 94 122
134 1 tri 149 120 126
135 1 tri 191 218 231
136 1 tri 149 152 120
137 1 tri 122 137 110
138 1 tri 202 197 170
139 1 tri 230 223 196
140 1 tri 266 303 265
141 1 tri 217 184 185
142 1 tri 246 263 208
143 1 tri 119 98 127
144 1 tri 86 100 112
145 1 tri 147 125 146
146 1 tri 172 170 197
147 1 tri 138 112 147
148 1 tri 171 201 180
149 1 tri 228 230 197
150 1 tri 208 263 224
151 1 tri 289 292 255
152 1 tri 382 378 317
153 1 tri 378 433 405
154 1 tri 336 292 289
155 1 tri 382 317 323
156 1 tri 382 403 450
157 1 tri 473 521 448
158 1 tri 653 603 640
159 1 tri 537 573 548
160 1 tri 516 484 550
161 1 tri 489 516 549
162 1 tri 484 448 521
163 1 tri 352 347 391
164 1 tri 303 325 347
165 1 tri 537 513 500
166 1 tri 435 397 391
167 1 tri 628 644 661
168 1 tri 526 513 548
169 1 tri 222 188 220
170 1 tri 223 230 265
171 1 tri 352 329 309
172 1 tri 256 223 265
173 1 tri 329 291 286
174 1 tri 220 184 217
175 1 tri 265 303 309
176 1 tri 278 292 325
177 1 tri 318 283 281
178 1 tri 580 536 551
179 1 tri 385 431 422
180 1 tri 346 343 389
181 1 tri 404 458 409
182 1 tri 386 354 346
183 1 tri 487 507 462
184 1 tri 540 563 575
185 1 tri 491 452 457
186 1 tri 330 343 301
187 1 tri 466 506 525
188 1 tri 514 470 481
189 1 tri 496 449 458
190 1 tri 427 386 389
191 1 tri 426 467 425
192 1 tri 192 176 160
193 1 tri 599 575 615
194 1 tri 563 507 539
195 1 tri 376 385 341
196 1 tri 260 221 258
197 1 tri 404 409 363
198 1 tri 282 243 275
199 1 tri 481 431 449
200 1 tri 449 431 407
201 1 tri 316 358 328
202 1 tri 328 331 287
203 1 tri 37 29 20
204 1 tri 68 62 48
205 1 tri 319 327 280
206 1 tri 191 216 179
207 1 tri 297 248 290
208 1 tri 248 225 210
209 1 tri 116 137 145
210 1 tri 122 152 153
211 1 tri 114 87 96
212 1 tri 137 169 145
213 1 tri 184 153 152
214 1 tri 169 137 153
215 1 tri 203 168 179
216 1 tri 114 133 105
217 1 tri 51 44 62
218 1 tri 94 80 104
219 1 tri 93 68 94
220 1 tri 122 153 137
221 1 tri 198 182 225
222 1 tri 90 110 116
223 1 tri 37 40 29
224 1 tri 12 5 16
225 1 tri 56 66 55
226 1 tri 24 12 29
227 1 tri 128 114 96
228 1 tri 69 54 51
229 1 tri 96 87 69
230 1 tri 148 176 182
231 1 tri 74 91 101
232 1 tri 23 13 11
233 1 tri 39 56 55
234 1 tri 190 155 175
235 1 tri 210 225 182
236 1 tri 410 375 366
237 1 tri 219 227 259
238 1 tri 240 264 279
239 1 tri 227 240 276
240 1 tri 297 290 334
241 1 tri 358 366 328
242 1 tri 308 264 297
243 1 tri 304 298 345
244 1 tri 183 219 211
245 1 tri 294 342 340
246 1 tri 335 288 314
247 1 tri 455 406 447
248 1 tri 304 314 271
249 1 tri 22 31 42
250 1 tri 28 14 22
251 1 tri 159 123 131
252 1 tri 131 123 97
253 1 tri 299 322 342
254 1 tri 369 335 360
255 1 tri 316 353 358
256 1 tri 406 410 366
257 1 tri 50 63 75
258 1 tri 226 181 190
259 1 tri 99 78 67
260 1 tri 97 109 131
261 1 tri 294 340 300
262 1 tri 326 305 361
263 1 tri 136 106 130
264 1 tri 47 32 53
265 1 tri 239 277 305
266 1 tri 157 130 124
267 1 tri 270 235 296
268 1 tri 162 174 135
269 1 tri 162 136 186
270 1 tri 296 324 270
271 1 tri 207 174 162
272 1 tri 372 337 310
273 1 tri 367 306 324
274 1 tri 337 296 268
275 1 tri 195 157 193
276 1 tri 156 193 157
277 1 tri 247 234 199
278 1 tri 167 159 131
279 1 tri 607 610 571
280 1 tri 247 254 294
281 1 tri 373 369 408
282 1 tri 437 400 394
283 1 tri 284 344 310
284 1 tri 402 361 356
285 1 tri 377 344 326
286 1 tri 413 361 402
287 1 tri 393 351 396
288 1 tri 483 446 442
289 1 tri 402 356 393
290 1 tri 337 395 355
291 1 tri 418 367 399
292 1 tri 432 421 461
293 1 tri 600 605 570
294 1 tri 499 463 460
295 1 tri 463 414 460
296 1 tri 357 414 379
297 1 tri 535 509 505
298 1 tri 475 463 505
299 1 tri 608 556 577
300 1 tri 505 463 499
301 1 tri 490 499 460
302 1 tri 270 306 249
303 1 tri 544 533 499
304 1 tri 460 418 451
305 1 tri 519 486 517
306 1 tri 441 399 395
307 1 tri 557 515 529
308 1 tri 552 511 542
309 1 tri 480 483 442
310 1 tri 384 340 342
311 1 tri 428 436 396
312 1 tri 524 482 510
313 1 tri 534 530 574
314 1 tri 529 502 543
315 1 tri 402 393 442
316 1 tri 351 300 340
317 1 tri 437 482 445
318 1 tri 543 576 571
319 1 tri 480 436 468
320 1 tri 442 393 436
321 1 tri 394 425 437
322 1 tri 541 576 543
323 1 tri 316 276 315
324 1 tri 599 560 575
325 1 tri 348 385 390
326 1 tri 431 481 470
327 1 tri 527 477 478
328 1 tri 477 510 467
329 1 tri 437 467 482
330 1 tri 625 648 666
331 1 tri 558 512 538
332 1 tri 422 390 385
333 1 tri 532 524 562
334 1 tri 512 527 478
335 1 tri 510 527 553
336 1 tri 558 581 602
337 1 tri 630 622 589
338 1 tri 581 538 546
339 1 tri 656 622 630
340 1 tri 602 579 558
341 1 tri 846 803 833
342 1 tri 697 656 676
343 1 tri 860 852 825
344 1 tri 926 942 954
345 1 tri 900 893 860
346 1 tri 782 739 747
347 1 tri 1031 1012 1032
348 1 tri 1057 1045 1047
349 1 tri 792 775 756
350 1 tri 605 576 570
351 1 tri 679 673 710
352 1 tri 917 888 901
353 1 tri 639 600 632
354 1 tri 570 532 562
355 1 tri 713 680 679
356 1 tri 571 576 607
357 1 tri 705 671 708
358 1 tri 593 553 579
359 1 tri 746 710 742
360 1 tri 605 607 576
361 1 tri 663 618 638
362 1 tri 677 664 704
363 1 tri 629 598 601
364 1 tri 713 753 718
365 1 tri 775 805 797
366 1 tri 862 885 851
367 1 tri 677 652 634
368 1 tri 586 554 552
369 1 tri 617 619 654
370 1 tri 583 554 586
371 1 tri 664 634 629
372 1 tri 614 585 634
373 1 tri 790 799 767
374 1 tri 894 885 862
375 1 tri 828 817 842
376 1 tri 830 805 839
377 1 tri 796 761 770
378 1 tri 858 838 872
379 1 tri 763 775 797
380 1 tri 784 778 813
381 1 tri 792 826 805
382 1 tri 850 814 834
383 1 tri 830 839 862
384 1 tri 839 826 857
385 1 tri 879 904 894
386 1 tri 879 857 890
387 1 tri 945 935 919
388 1 tri 945 919 914
389 1 tri 859 881 848
390 1 tri 881 872 848
391 1 tri 966 954 942
392 1 tri 923 956 950
393 1 tri 954 979 969
394 1 tri 901 889 921
395 1 tri 999 980 984
396 1 tri 956 929 960
397 1 tri 995 968 975
398 1 tri 991 1014 1006
399 1 tri 974 992 964
400 1 tri 1007 1018 1002
401 1 tri 960 965 991
402 1 tri 1033 1025 1015
403 1 tri 984 991 1006
404 1 tri 983 1007 1002
405 1 tri 992 997 1015
406 1 tri 1061 1057 1063
407 1 tri 1039 1044 1028
408 1 tri 1057 1059 1063
409 1 tri 1057 1047 1059
410 1 tri 1059 1065 1063
411 1 tri 1064 1055 1062
412 1 tri 780 741 735
413 1 tri 1046 1038 1056
414 1 tri 995 987 968
415 1 tri 1031 1032 1047
416 1 tri 1005 988 1012
417 1 tri 962 987 974
418 1 tri 1015 1007 992
419 1 tri 1019 1001 1024
420 1 tri 944 949 978
421 1 tri 1010 1017 1029
422 1 tri 1017 1019 1035
423 1 tri 1029 1035 1042
424 1 tri 918 902 943
425 1 tri 833 803 779
426 1 tri 823 779 780
427 1 tri 940 912 911
428 1 tri 974 987 997
429 1 tri 975 944 978
430 1 tri 655 701 696
431 1 tri 528 481 496
432 1 tri 615 649 599
433 1 tri 656 648 622
434 1 tri 700 734 701
435 1 tri 902 899 933
436 1 tri 701 734 735
437 1 tri 902 933 943
438 1 tri 631 660 669
439 1 tri 731 729 751
440 1 tri 762 773 785
441 1 tri 752 774 734
442 1 tri 772 808 822
443 1 tri 906 944 938
444 1 tri 927 941 911
445 1 tri 752 734 723
446 1 tri 808 807 847
447 1 tri 957 927 947
448 1 tri 844 880 887
449 1 tri 897 871 892
450 1 tri 978 949 959
451 1 tri 959 924 940
452 1 tri 758 765 736
453 1 tri 781 749 777
454 1 tri 794 800 773
455 1 tri 837 877 845
456 1 tri 738 743 712
457 1 tri 800 794 818
458 1 tri 665 641 659
459 1 tri 582 604 611
460 1 tri 661 690 668
461 1 tri 777 768 802
462 1 tri 773 762 751
463 1 tri 687 691 670
464 1 tri 751 762 731
465 1 tri 764 793 768
466 1 tri 653 623 603
467 1 tri 596 613 572
468 1 tri 685 640 675
469 1 tri 603 584 640
470 1 tri 659 633 637
471 1 tri 620 613 651
472 1 tri 745 726 717
473 1 tri 716 729 706
474 1 tri 719 728 750
475 1 tri 685 721 730
476 1 tri 758 736 726
477 1 tri 812 788 809
478 1 tri 820 789 771
479 1 tri 745 776 758
480 1 tri 794 773 769
481 1 tri 812 835 798
482 1 tri 878 903 883
483 1 tri 973 998 976
484 1 tri 873 865 835
485 1 tri 806 793 785
486 1 tri 827 800 818
487 1 tri 865 841 835
488 1 tri 843 871 837
489 1 tri 880 877 911
490 1 tri 837 802 816
491 1 tri 947 972 957
492 1 tri 993 988 967
493 1 tri 1008 1004 1023
494 1 tri 931 948 898
495 1 tri 1013 1008 1028
496 1 tri 1004 1009 1023
497 1 tri 1059 1064 1065
498 1 tri 1038 1022 1041
499 1 tri 955 928 948
500 1 tri 913 892 883
501 1 tri 958 973 948
502 1 tri 934 931 907
503 1 tri 1030 1009 1022
504 1 tri 1004 990 982
505 1 tri 1053 1046 1060
506 1 tri 1039 1030 1046
507 1 tri 77 102 98
508 1 tri 102 127 98
509 1 tri 52 65 71
510 1 tri 58 77 81
511 1 tri 164 200 208
512 1 tri 134 127 102
513 1 tri 151 146 119
514 1 tri 125 147 112
515 1 tri 125 100 119
516 1 tri 81 98 100
517 1 tri 113 112 138
518 1 tri 89 71 86
519 1 tri 146 125 119
520 1 tri 112 100 125
521 1 tri 81 65 58
522 1 tri 52 34 46
523 1 tri 65 52 46
524 1 tri 71 60 52
525 1 tri 58 65 46
526 1 tri 81 100 86
527 1 tri 113 89 112
528 1 tri 71 65 86
529 1 tri 45 52 60
530 1 tri 30 36 48
531 1 tri 19 26 36
532 1 tri 26 45 36
533 1 tri 34 52 45
534 1 tri 19 36 30
535 1 tri 21 30 44
536 1 tri 15 19 30
537 1 tri 30 48 44
538 1 tri 36 60 48
539 1 tri 72 62 82
540 1 tri 48 60 68
541 1 tri 120 94 104
542 1 tri 68 60 80
543 1 tri 122 94 120
544 1 tri 68 80 94
545 1 tri 93 122 110
546 1 tri 120 152 122
547 1 tri 112 89 86
548 1 tri 104 80 89
549 1 tri 144 113 138
550 1 tri 104 89 113
551 1 tri 144 126 113
552 1 tri 120 104 126
553 1 tri 170 172 138
554 1 tri 172 197 196
555 1 tri 170 147 180
556 1 tri 170 138 147
557 1 tri 196 173 172
558 1 tri 144 138 172
559 1 tri 172 173 144
560 1 tri 185 184 152
561 1 tri 144 149 126
562 1 tri 173 185 149
563 1 tri 149 185 152
564 1 tri 257 252 285
565 1 tri 196 185 173
566 1 tri 223 256 217
567 1 tri 223 217 185
568 1 tri 256 291 252
569 1 tri 252 220 217
570 1 tri 188 169 153
571 1 tri 256 252 217
572 1 tri 364 339 401
573 1 tri 230 196 197
574 1 tri 223 185 196
575 1 tri 215 202 180
576 1 tri 237 278 266
577 1 tri 215 237 202
578 1 tri 266 265 230
579 1 tri 202 237 228
580 1 tri 321 269 317
581 1 tri 246 206 250
582 1 tri 269 238 224
583 1 tri 215 238 255
584 1 tri 215 201 238
585 1 tri 237 255 278
586 1 tri 237 215 255
587 1 tri 127 151 119
588 1 tri 171 180 147
589 1 tri 177 171 146
590 1 tri 201 215 180
591 1 tri 127 164 151
592 1 tri 224 201 177
593 1 tri 177 201 171
594 1 tri 224 238 201
595 1 tri 134 164 127
596 1 tri 177 146 151
597 1 tri 151 164 177
598 1 tri 165 206 200
599 1 tri 134 165 164
600 1 tri 208 200 246
601 1 tri 164 165 200
602 1 tri 177 208 224
603 1 tri 177 164 208
604 1 tri 323 246 302
605 1 tri 200 206 246
606 1 tri 311 374 302
607 1 tri 269 263 317
608 1 tri 269 224 263
609 1 tri 250 302 246
610 1 tri 250 311 302
611 1 tri 362 374 311
612 1 tri 336 289 350
613 1 tri 255 238 289
614 1 tri 383 370 336
615 1 tri 278 255 292
616 1 tri 289 321 350
617 1 tri 289 269 321
618 1 tri 370 325 336
619 1 tri 303 278 325
620 1 tri 383 336 350
621 1 tri 325 292 336
622 1 tri 433 378 382
623 1 tri 321 317 378
624 1 tri 263 323 317
625 1 tri 302 374 323
626 1 tri 419 374 362
627 1 tri 374 403 323
628 1 tri 450 489 433
629 1 tri 450 403 484
630 1 tri 382 323 403
631 1 tri 465 405 433
632 1 tri 405 350 378
633 1 tri 403 448 484
634 1 tri 374 419 448
635 1 tri 516 450 484
636 1 tri 433 382 450
637 1 tri 565 521 522
638 1 tri 521 550 484
639 1 tri 578 516 550
640 1 tri 489 450 516
641 1 tri 522 521 473
642 1 tri 584 603 550
643 1 tri 547 501 523
644 1 tri 434 383 405
645 1 tri 572 547 523
646 1 tri 501 465 523
647 1 tri 549 572 523
648 1 tri 573 604 582
649 1 tri 350 405 383
650 1 tri 433 489 465
651 1 tri 417 434 472
652 1 tri 405 465 434
653 1 tri 523 465 489
654 1 tri 501 472 465
655 1 tri 417 472 456
656 1 tri 434 465 472
657 1 tri 526 485 513
658 1 tri 508 491 457
659 1 tri 501 520 472
660 1 tri 520 537 500
661 1 tri 559 537 520
662 1 tri 500 472 520
663 1 tri 547 559 520
664 1 tri 548 513 537
665 1 tri 559 573 537
666 1 tri 551 536 508
667 1 tri 572 587 547
668 1 tri 595 604 573
669 1 tri 526 561 551
670 1 tri 569 525 555
671 1 tri 526 551 508
672 1 tri 616 611 633
673 1 tri 582 561 548
674 1 tri 582 611 590
675 1 tri 444 457 420
676 1 tri 401 339 371
677 1 tri 513 485 476
678 1 tri 508 457 485
679 1 tri 536 491 508
680 1 tri 536 506 491
681 1 tri 561 526 548
682 1 tri 508 485 526
683 1 tri 352 371 329
684 1 tri 457 452 401
685 1 tri 420 401 371
686 1 tri 332 359 380
687 1 tri 435 444 397
688 1 tri 457 401 420
689 1 tri 417 435 391
690 1 tri 420 371 397
691 1 tri 435 417 456
692 1 tri 391 347 370
693 1 tri 476 435 456
694 1 tri 476 485 444
695 1 tri 476 444 435
696 1 tri 485 457 444
697 1 tri 256 265 286
698 1 tri 230 228 266
699 1 tri 237 266 228
700 1 tri 278 303 266
701 1 tri 391 370 417
702 1 tri 347 325 370
703 1 tri 265 309 286
704 1 tri 303 347 309
705 1 tri 309 329 286
706 1 tri 371 339 329
707 1 tri 359 332 318
708 1 tri 285 252 291
709 1 tri 347 352 309
710 1 tri 397 371 352
711 1 tri 244 257 281
712 1 tri 364 320 339
713 1 tri 281 283 244
714 1 tri 401 411 364
715 1 tri 244 222 257
716 1 tri 291 339 285
717 1 tri 236 262 275
718 1 tri 236 203 216
719 1 tri 307 272 301
720 1 tri 178 191 158
721 1 tri 301 295 330
722 1 tri 272 231 261
723 1 tri 346 307 343
724 1 tri 272 295 301
725 1 tri 343 330 368
726 1 tri 295 283 332
727 1 tri 368 389 343
728 1 tri 330 295 332
729 1 tri 283 318 332
730 1 tri 281 285 320
731 1 tri 281 320 318
732 1 tri 285 339 320
733 1 tri 320 359 318
734 1 tri 438 493 471
735 1 tri 452 411 401
736 1 tri 359 320 364
737 1 tri 411 412 359
738 1 tri 416 389 368
739 1 tri 364 411 359
740 1 tri 452 491 506
741 1 tri 359 412 380
742 1 tri 411 452 466
743 1 tri 438 466 493
744 1 tri 412 411 466
745 1 tri 555 506 536
746 1 tri 466 452 506
747 1 tri 567 539 518
748 1 tri 471 440 416
749 1 tri 627 591 609
750 1 tri 525 506 555
751 1 tri 416 438 471
752 1 tri 466 525 493
753 1 tri 525 545 493
754 1 tri 539 507 487
755 1 tri 660 631 621
756 1 tri 518 493 545
757 1 tri 332 368 330
758 1 tri 380 416 368
759 1 tri 389 416 440
760 1 tri 380 412 438
761 1 tri 380 438 416
762 1 tri 412 466 438
763 1 tri 518 471 493
764 1 tri 518 487 471
765 1 tri 440 427 389
766 1 tri 496 507 540
767 1 tri 458 404 462
768 1 tri 354 386 404
769 1 tri 386 427 404
770 1 tri 487 518 539
771 1 tri 427 462 404
772 1 tri 427 440 487
773 1 tri 427 487 462
774 1 tri 440 471 487
775 1 tri 545 567 518
776 1 tri 606 615 575
777 1 tri 528 540 575
778 1 tri 481 449 496
779 1 tri 589 560 599
780 1 tri 514 546 495
781 1 tri 588 606 563
782 1 tri 606 575 563
783 1 tri 407 409 449
784 1 tri 363 365 327
785 1 tri 409 458 449
786 1 tri 462 507 458
787 1 tri 507 496 458
788 1 tri 540 528 496
789 1 tri 560 528 575
790 1 tri 560 514 528
791 1 tri 279 308 315
792 1 tri 334 365 376
793 1 tri 334 376 341
794 1 tri 407 431 376
795 1 tri 353 348 390
796 1 tri 376 431 385
797 1 tri 363 327 319
798 1 tri 290 253 280
799 1 tri 313 346 354
800 1 tri 307 301 343
801 1 tri 404 363 354
802 1 tri 409 407 365
803 1 tri 327 365 334
804 1 tri 363 409 365
805 1 tri 313 282 275
806 1 tri 280 253 232
807 1 tri 313 307 346
808 1 tri 275 262 307
809 1 tri 319 313 354
810 1 tri 275 307 313
811 1 tri 319 280 282
812 1 tri 327 334 290
813 1 tri 327 290 280
814 1 tri 334 341 297
815 1 tri 308 297 341
816 1 tri 264 248 297
817 1 tri 313 319 282
818 1 tri 354 363 319
819 1 tri 210 182 176
820 1 tri 219 259 251
821 1 tri 192 213 176
822 1 tri 248 264 225
823 1 tri 213 248 210
824 1 tri 253 290 248
825 1 tri 132 101 117
826 1 tri 101 132 129
827 1 tri 133 141 115
828 1 tri 160 176 141
829 1 tri 141 148 117
830 1 tri 141 176 148
831 1 tri 91 115 117
832 1 tri 141 117 115
833 1 tri 179 168 143
834 1 tri 160 141 133
835 1 tri 216 203 179
836 1 tri 160 133 168
837 1 tri 232 192 203
838 1 tri 213 210 176
839 1 tri 232 213 192
840 1 tri 253 248 213
841 1 tri 243 232 203
842 1 tri 253 213 232
843 1 tri 275 243 236
844 1 tri 282 280 243
845 1 tri 262 216 231
846 1 tri 262 236 216
847 1 tri 283 261 242
848 1 tri 272 262 231
849 1 tri 295 261 283
850 1 tri 295 272 261
851 1 tri 205 218 178
852 1 tri 261 231 218
853 1 tri 252 257 220
854 1 tri 244 242 205
855 1 tri 283 242 244
856 1 tri 261 218 242
857 1 tri 281 257 285
858 1 tri 222 220 257
859 1 tri 169 178 145
860 1 tri 169 188 205
861 1 tri 220 188 184
862 1 tri 222 205 188
863 1 tri 169 205 178
864 1 tri 222 244 205
865 1 tri 145 128 116
866 1 tri 158 179 143
867 1 tri 158 143 128
868 1 tri 168 133 143
869 1 tri 158 191 179
870 1 tri 178 218 191
871 1 tri 243 203 236
872 1 tri 192 168 203
873 1 tri 96 69 72
874 1 tri 54 73 56
875 1 tri 90 96 72
876 1 tri 116 128 96
877 1 tri 143 114 128
878 1 tri 143 133 114
879 1 tri 51 62 72
880 1 tri 44 48 62
881 1 tri 90 82 110
882 1 tri 62 68 82
883 1 tri 96 90 116
884 1 tri 72 82 90
885 1 tri 82 93 110
886 1 tri 82 68 93
887 1 tri 15 30 21
888 1 tri 20 21 33
889 1 tri 8 15 21
890 1 tri 20 33 37
891 1 tri 21 44 33
892 1 tri 8 21 20
893 1 tri 16 20 29
894 1 tri 7 8 20
895 1 tri 51 37 33
896 1 tri 40 39 24
897 1 tri 44 51 33
898 1 tri 72 69 51
899 1 tri 5 12 1
900 1 tri 7 20 16
901 1 tri 12 16 29
902 1 tri 5 7 16
903 1 tri 54 40 37
904 1 tri 73 87 105
905 1 tri 51 54 37
906 1 tri 69 87 73
907 1 tri 69 73 54
908 1 tri 88 115 91
909 1 tri 114 105 87
910 1 tri 133 115 105
911 1 tri 40 56 39
912 1 tri 73 105 88
913 1 tri 73 88 66
914 1 tri 105 115 88
915 1 tri 101 91 117
916 1 tri 66 88 91
917 1 tri 1 12 2
918 1 tri 13 3 11
919 1 tri 2 12 11
920 1 tri 23 24 39
921 1 tri 23 11 24
922 1 tri 54 56 40
923 1 tri 73 66 56
924 1 tri 2 11 3
925 1 tri 38 25 23
926 1 tri 25 10 13
927 1 tri 39 38 23
928 1 tri 22 41 28
929 1 tri 3 13 4
930 1 tri 23 25 13
931 1 tri 38 43 25
932 1 tri 55 74 57
933 1 tri 76 84 109
934 1 tri 38 57 43
935 1 tri 92 75 107
936 1 tri 85 79 103
937 1 tri 57 38 55
938 1 tri 140 118 150
939 1 tri 79 74 101
940 1 tri 39 55 38
941 1 tri 66 91 74
942 1 tri 63 57 79
943 1 tri 63 43 57
944 1 tri 57 74 79
945 1 tri 55 66 74
946 1 tri 148 132 117
947 1 tri 103 79 101
948 1 tri 182 161 148
949 1 tri 129 103 101
950 1 tri 154 161 189
951 1 tri 132 148 161
952 1 tri 129 154 150
953 1 tri 240 225 264
954 1 tri 161 198 189
955 1 tri 161 182 198
956 1 tri 198 227 189
957 1 tri 198 225 240
958 1 tri 276 240 279
959 1 tri 227 198 240
960 1 tri 227 276 259
961 1 tri 279 315 276
962 1 tri 258 251 293
963 1 tri 259 287 251
964 1 tri 293 287 331
965 1 tri 259 276 287
966 1 tri 287 293 251
967 1 tri 331 338 293
968 1 tri 161 154 132
969 1 tri 150 118 129
970 1 tri 183 154 189
971 1 tri 129 132 154
972 1 tri 154 183 150
973 1 tri 189 227 219
974 1 tri 211 219 251
975 1 tri 183 189 219
976 1 tri 183 175 150
977 1 tri 76 109 97
978 1 tri 254 209 229
979 1 tri 140 150 175
980 1 tri 258 221 211
981 1 tri 175 183 211
982 1 tri 251 258 211
983 1 tri 271 288 241
984 1 tri 338 298 293
985 1 tri 369 360 400
986 1 tri 298 304 260
987 1 tri 288 273 241
988 1 tri 260 226 221
989 1 tri 187 209 167
990 1 tri 260 271 226
991 1 tri 229 209 187
992 1 tri 226 271 241
993 1 tri 349 345 388
994 1 tri 155 142 121
995 1 tri 229 204 241
996 1 tri 175 155 140
997 1 tri 175 221 190
998 1 tri 155 181 142
999 1 tri 226 241 204
1000 1 tri 226 190 221
1001 1 tri 181 155 190
1002 1 tri 42 50 64
1003 1 tri 118 85 103
1004 1 tri 75 92 64
1005 1 tri 121 142 111
1006 1 tri 75 85 107
1007 1 tri 140 155 121
1008 1 tri 50 75 64
1009 1 tri 118 103 129
1010 1 tri 63 85 75
1011 1 tri 63 79 85
1012 1 tri 121 107 140
1013 1 tri 121 92 107
1014 1 tri 107 118 140
1015 1 tri 107 85 118
1016 1 tri 13 10 4
1017 1 tri 25 31 17
1018 1 tri 43 31 25
1019 1 tri 42 64 61
1020 1 tri 43 50 31
1021 1 tri 43 63 50
1022 1 tri 10 6 4
1023 1 tri 10 25 17
1024 1 tri 6 17 9
1025 1 tri 6 10 17
1026 1 tri 17 22 9
1027 1 tri 17 31 22
1028 1 tri 22 42 41
1029 1 tri 31 50 42
1030 1 tri 9 22 14
1031 1 tri 32 18 28
1032 1 tri 41 32 28
1033 1 tri 92 84 64
1034 1 tri 76 53 61
1035 1 tri 64 84 61
1036 1 tri 92 121 111
1037 1 tri 84 111 109
1038 1 tri 84 92 111
1039 1 tri 111 139 109
1040 1 tri 142 181 166
1041 1 tri 53 76 70
1042 1 tri 61 84 76
1043 1 tri 139 131 109
1044 1 tri 167 209 199
1045 1 tri 123 159 156
1046 1 tri 131 139 167
1047 1 tri 14 28 18
1048 1 tri 61 53 41
1049 1 tri 78 106 83
1050 1 tri 49 47 67
1051 1 tri 27 32 47
1052 1 tri 47 53 70
1053 1 tri 32 41 53
1054 1 tri 18 32 27
1055 1 tri 27 47 35
1056 1 tri 70 67 47
1057 1 tri 70 97 95
1058 1 tri 78 49 67
1059 1 tri 35 47 49
1060 1 tri 35 49 59
1061 1 tri 49 78 59
1062 1 tri 124 123 156
1063 1 tri 59 78 83
1064 1 tri 83 106 108
1065 1 tri 186 163 212
1066 1 tri 108 136 135
1067 1 tri 108 106 136
1068 1 tri 67 95 99
1069 1 tri 67 70 95
1070 1 tri 123 124 95
1071 1 tri 106 78 99
1072 1 tri 157 124 156
1073 1 tri 99 95 124
1074 1 tri 124 130 99
1075 1 tri 157 163 130
1076 1 tri 163 186 136
1077 1 tri 270 324 306
1078 1 tri 245 195 233
1079 1 tri 212 163 195
1080 1 tri 195 245 212
1081 1 tri 233 274 284
1082 1 tri 136 162 135
1083 1 tri 186 207 162
1084 1 tri 212 235 186
1085 1 tri 249 214 207
1086 1 tri 174 207 214
1087 1 tri 186 235 207
1088 1 tri 212 245 268
1089 1 tri 235 270 207
1090 1 tri 430 379 414
1091 1 tri 214 249 267
1092 1 tri 207 270 249
1093 1 tri 235 268 296
1094 1 tri 212 268 235
1095 1 tri 245 284 310
1096 1 tri 344 284 326
1097 1 tri 194 156 159
1098 1 tri 233 284 245
1099 1 tri 377 361 413
1100 1 tri 310 337 268
1101 1 tri 337 355 296
1102 1 tri 234 239 194
1103 1 tri 274 233 239
1104 1 tri 277 247 300
1105 1 tri 234 194 199
1106 1 tri 333 277 300
1107 1 tri 305 274 239
1108 1 tri 233 193 239
1109 1 tri 233 195 193
1110 1 tri 193 194 239
1111 1 tri 193 156 194
1112 1 tri 247 199 209
1113 1 tri 194 159 199
1114 1 tri 277 234 247
1115 1 tri 277 239 234
1116 1 tri 142 166 139
1117 1 tri 229 241 273
1118 1 tri 166 187 139
1119 1 tri 199 159 167
1120 1 tri 139 187 167
1121 1 tri 166 204 187
1122 1 tri 181 204 166
1123 1 tri 181 226 204
1124 1 tri 254 229 273
1125 1 tri 187 204 229
1126 1 tri 299 294 254
1127 1 tri 247 209 254
1128 1 tri 247 294 300
1129 1 tri 254 273 299
1130 1 tri 333 305 277
1131 1 tri 356 361 305
1132 1 tri 356 333 393
1133 1 tri 356 305 333
1134 1 tri 387 351 340
1135 1 tri 393 333 351
1136 1 tri 408 445 453
1137 1 tri 396 351 387
1138 1 tri 428 396 387
1139 1 tri 436 393 396
1140 1 tri 532 541 498
1141 1 tri 468 436 428
1142 1 tri 461 421 454
1143 1 tri 392 344 377
1144 1 tri 424 372 392
1145 1 tri 392 421 432
1146 1 tri 413 446 454
1147 1 tri 402 442 446
1148 1 tri 245 310 268
1149 1 tri 344 392 372
1150 1 tri 274 326 284
1151 1 tri 274 305 326
1152 1 tri 361 377 326
1153 1 tri 421 392 377
1154 1 tri 446 413 402
1155 1 tri 421 377 413
1156 1 tri 344 372 310
1157 1 tri 355 324 296
1158 1 tri 372 395 337
1159 1 tri 399 367 355
1160 1 tri 432 424 392
1161 1 tri 461 469 432
1162 1 tri 249 306 267
1163 1 tri 367 418 414
1164 1 tri 267 306 312
1165 1 tri 414 357 367
1166 1 tri 312 306 357
1167 1 tri 306 367 357
1168 1 tri 324 355 367
1169 1 tri 312 357 379
1170 1 tri 460 414 418
1171 1 tri 463 475 430
1172 1 tri 463 430 414
1173 1 tri 439 395 424
1174 1 tri 399 355 395
1175 1 tri 372 424 395
1176 1 tri 432 469 424
1177 1 tri 469 474 424
1178 1 tri 479 486 441
1179 1 tri 479 441 439
1180 1 tri 451 418 399
1181 1 tri 479 474 511
1182 1 tri 439 424 474
1183 1 tri 474 479 439
1184 1 tri 486 490 451
1185 1 tri 517 486 479
1186 1 tri 517 554 519
1187 1 tri 486 451 441
1188 1 tri 490 460 451
1189 1 tri 519 544 490
1190 1 tri 556 535 505
1191 1 tri 533 505 499
1192 1 tri 509 475 505
1193 1 tri 577 533 544
1194 1 tri 556 505 533
1195 1 tri 583 544 554
1196 1 tri 583 577 544
1197 1 tri 469 504 474
1198 1 tri 552 585 586
1199 1 tri 544 519 554
1200 1 tri 490 486 519
1201 1 tri 564 542 531
1202 1 tri 585 614 586
1203 1 tri 517 552 554
1204 1 tri 542 564 585
1205 1 tri 564 531 568
1206 1 tri 504 469 497
1207 1 tri 531 534 568
1208 1 tri 530 483 515
1209 1 tri 598 564 568
1210 1 tri 598 585 564
1211 1 tri 492 497 454
1212 1 tri 497 469 461
1213 1 tri 531 497 534
1214 1 tri 454 446 492
1215 1 tri 454 497 461
1216 1 tri 492 534 497
1217 1 tri 542 504 531
1218 1 tri 542 511 504
1219 1 tri 503 541 543
1220 1 tri 480 442 436
1221 1 tri 502 480 468
1222 1 tri 483 530 492
1223 1 tri 529 515 480
1224 1 tri 492 446 483
1225 1 tri 480 502 529
1226 1 tri 464 428 423
1227 1 tri 480 515 483
1228 1 tri 529 571 557
1229 1 tri 557 530 515
1230 1 tri 534 492 530
1231 1 tri 645 679 680
1232 1 tri 592 574 557
1233 1 tri 576 541 570
1234 1 tri 482 467 510
1235 1 tri 459 453 498
1236 1 tri 532 570 541
1237 1 tri 529 543 571
1238 1 tri 502 464 503
1239 1 tri 524 510 553
1240 1 tri 467 426 477
1241 1 tri 562 524 553
1242 1 tri 532 488 524
1243 1 tri 593 562 553
1244 1 tri 600 570 562
1245 1 tri 453 445 488
1246 1 tri 423 459 464
1247 1 tri 498 453 488
1248 1 tri 384 423 387
1249 1 tri 488 482 524
1250 1 tri 488 445 482
1251 1 tri 503 459 498
1252 1 tri 384 387 340
1253 1 tri 468 464 502
1254 1 tri 468 428 464
1255 1 tri 532 498 488
1256 1 tri 541 503 498
1257 1 tri 502 503 543
1258 1 tri 464 459 503
1259 1 tri 373 408 415
1260 1 tri 400 445 408
1261 1 tri 322 369 373
1262 1 tri 408 453 415
1263 1 tri 459 423 415
1264 1 tri 428 387 423
1265 1 tri 322 299 273
1266 1 tri 342 294 299
1267 1 tri 288 335 322
1268 1 tri 400 408 369
1269 1 tri 423 384 415
1270 1 tri 342 322 373
1271 1 tri 373 384 342
1272 1 tri 373 415 384
1273 1 tri 260 304 271
1274 1 tri 260 258 298
1275 1 tri 271 314 288
1276 1 tri 304 345 349
1277 1 tri 349 360 314
1278 1 tri 369 322 335
1279 1 tri 360 349 394
1280 1 tri 314 304 349
1281 1 tri 400 360 394
1282 1 tri 335 314 360
1283 1 tri 349 388 394
1284 1 tri 375 338 331
1285 1 tri 400 437 445
1286 1 tri 425 467 437
1287 1 tri 394 388 425
1288 1 tri 381 338 375
1289 1 tri 381 345 338
1290 1 tri 426 388 381
1291 1 tri 388 426 425
1292 1 tri 429 477 426
1293 1 tri 293 298 258
1294 1 tri 338 345 298
1295 1 tri 331 328 366
1296 1 tri 287 276 316
1297 1 tri 366 375 331
1298 1 tri 375 429 381
1299 1 tri 410 429 375
1300 1 tri 388 345 381
1301 1 tri 385 348 341
1302 1 tri 279 264 308
1303 1 tri 353 316 315
1304 1 tri 328 287 316
1305 1 tri 308 348 315
1306 1 tri 308 341 348
1307 1 tri 348 353 315
1308 1 tri 353 398 358
1309 1 tri 390 398 353
1310 1 tri 406 366 358
1311 1 tri 447 398 443
1312 1 tri 406 358 398
1313 1 tri 470 443 422
1314 1 tri 443 390 422
1315 1 tri 390 443 398
1316 1 tri 422 431 470
1317 1 tri 398 447 406
1318 1 tri 443 470 495
1319 1 tri 528 514 481
1320 1 tri 546 589 581
1321 1 tri 381 429 426
1322 1 tri 410 406 455
1323 1 tri 410 455 429
1324 1 tri 494 538 512
1325 1 tri 455 478 429
1326 1 tri 558 538 581
1327 1 tri 429 478 477
1328 1 tri 455 447 494
1329 1 tri 527 512 558
1330 1 tri 478 455 512
1331 1 tri 553 527 579
1332 1 tri 510 477 527
1333 1 tri 622 602 581
1334 1 tri 579 527 558
1335 1 tri 455 494 512
1336 1 tri 447 443 495
1337 1 tri 494 495 538
1338 1 tri 494 447 495
1339 1 tri 589 546 560
1340 1 tri 495 470 514
1341 1 tri 495 546 538
1342 1 tri 514 560 546
1343 1 tri 648 602 622
1344 1 tri 648 625 602
1345 1 tri 600 593 632
1346 1 tri 579 602 625
1347 1 tri 676 656 630
1348 1 tri 824 803 846
1349 1 tri 632 593 625
1350 1 tri 600 562 593
1351 1 tri 666 632 625
1352 1 tri 671 639 632
1353 1 tri 699 666 648
1354 1 tri 671 632 666
1355 1 tri 747 739 699
1356 1 tri 648 656 681
1357 1 tri 697 720 681
1358 1 tri 787 801 834
1359 1 tri 787 742 760
1360 1 tri 671 666 708
1361 1 tri 599 649 630
1362 1 tri 759 803 786
1363 1 tri 656 697 681
1364 1 tri 676 696 727
1365 1 tri 681 720 699
1366 1 tri 779 741 780
1367 1 tri 697 727 720
1368 1 tri 697 676 727
1369 1 tri 759 747 720
1370 1 tri 739 708 699
1371 1 tri 727 759 720
1372 1 tri 727 741 779
1373 1 tri 823 833 779
1374 1 tri 803 759 779
1375 1 tri 824 786 803
1376 1 tri 747 759 786
1377 1 tri 860 825 824
1378 1 tri 869 860 824
1379 1 tri 868 902 876
1380 1 tri 876 846 833
1381 1 tri 895 846 876
1382 1 tri 869 824 846
1383 1 tri 824 825 782
1384 1 tri 852 834 801
1385 1 tri 708 739 760
1386 1 tri 917 926 946
1387 1 tri 895 900 869
1388 1 tri 889 923 921
1389 1 tri 786 782 747
1390 1 tri 866 834 852
1391 1 tri 710 705 742
1392 1 tri 739 782 760
1393 1 tri 824 782 786
1394 1 tri 825 852 801
1395 1 tri 782 801 760
1396 1 tri 782 825 801
1397 1 tri 742 787 778
1398 1 tri 760 801 787
1399 1 tri 819 813 849
1400 1 tri 778 787 814
1401 1 tri 778 814 813
1402 1 tri 787 834 814
1403 1 tri 904 879 890
1404 1 tri 813 814 850
1405 1 tri 888 850 866
1406 1 tri 849 813 850
1407 1 tri 834 866 850
1408 1 tri 921 950 942
1409 1 tri 851 830 862
1410 1 tri 805 826 839
1411 1 tri 819 854 826
1412 1 tri 849 882 884
1413 1 tri 854 857 826
1414 1 tri 854 884 890
1415 1 tri 737 756 775
1416 1 tri 756 753 792
1417 1 tri 792 784 819
1418 1 tri 753 746 784
1419 1 tri 775 792 805
1420 1 tri 753 784 792
1421 1 tri 792 819 826
1422 1 tri 784 813 819
1423 1 tri 713 679 710
1424 1 tri 713 718 680
1425 1 tri 645 680 638
1426 1 tri 703 724 683
1427 1 tri 763 737 775
1428 1 tri 718 753 756
1429 1 tri 705 673 671
1430 1 tri 642 607 605
1431 1 tri 760 742 708
1432 1 tri 710 673 705
1433 1 tri 746 742 778
1434 1 tri 705 708 742
1435 1 tri 784 746 778
1436 1 tri 753 713 746
1437 1 tri 639 605 600
1438 1 tri 673 679 642
1439 1 tri 673 639 671
1440 1 tri 673 642 639
1441 1 tri 639 642 605
1442 1 tri 679 645 642
1443 1 tri 618 592 638
1444 1 tri 557 571 592
1445 1 tri 571 610 592
1446 1 tri 607 642 645
1447 1 tri 568 574 601
1448 1 tri 592 610 638
1449 1 tri 610 645 638
1450 1 tri 610 607 645
1451 1 tri 534 574 568
1452 1 tri 530 557 574
1453 1 tri 568 601 598
1454 1 tri 574 592 618
1455 1 tri 680 663 638
1456 1 tri 601 574 618
1457 1 tri 683 646 663
1458 1 tri 601 618 646
1459 1 tri 683 663 703
1460 1 tri 646 618 663
1461 1 tri 680 703 663
1462 1 tri 737 763 724
1463 1 tri 704 683 724
1464 1 tri 704 664 683
1465 1 tri 763 754 724
1466 1 tri 732 761 725
1467 1 tri 693 677 711
1468 1 tri 733 767 748
1469 1 tri 542 585 552
1470 1 tri 598 634 585
1471 1 tri 683 664 646
1472 1 tri 634 598 629
1473 1 tri 646 664 629
1474 1 tri 704 711 677
1475 1 tri 664 677 634
1476 1 tri 693 686 654
1477 1 tri 608 577 617
1478 1 tri 556 533 577
1479 1 tri 619 586 614
1480 1 tri 619 583 586
1481 1 tri 635 608 650
1482 1 tri 583 619 617
1483 1 tri 535 556 566
1484 1 tri 566 556 597
1485 1 tri 650 608 617
1486 1 tri 597 556 608
1487 1 tri 597 608 635
1488 1 tri 635 650 678
1489 1 tri 725 686 693
1490 1 tri 678 650 686
1491 1 tri 678 686 722
1492 1 tri 693 652 677
1493 1 tri 619 614 652
1494 1 tri 650 654 686
1495 1 tri 650 617 654
1496 1 tri 652 693 654
1497 1 tri 732 748 770
1498 1 tri 711 732 693
1499 1 tri 761 755 725
1500 1 tri 704 733 711
1501 1 tri 829 858 853
1502 1 tri 732 770 761
1503 1 tri 748 767 783
1504 1 tri 748 783 770
1505 1 tri 817 790 797
1506 1 tri 693 732 725
1507 1 tri 711 748 732
1508 1 tri 821 791 796
1509 1 tri 755 761 791
1510 1 tri 761 796 791
1511 1 tri 770 783 804
1512 1 tri 804 829 796
1513 1 tri 770 804 796
1514 1 tri 783 799 815
1515 1 tri 821 829 853
1516 1 tri 821 796 829
1517 1 tri 829 838 858
1518 1 tri 783 767 799
1519 1 tri 875 842 851
1520 1 tri 838 848 872
1521 1 tri 815 804 783
1522 1 tri 875 859 842
1523 1 tri 875 891 859
1524 1 tri 711 733 748
1525 1 tri 704 724 733
1526 1 tri 848 815 828
1527 1 tri 767 754 790
1528 1 tri 828 815 799
1529 1 tri 838 804 815
1530 1 tri 848 828 859
1531 1 tri 799 790 817
1532 1 tri 718 737 703
1533 1 tri 718 756 737
1534 1 tri 724 754 733
1535 1 tri 763 790 754
1536 1 tri 797 790 763
1537 1 tri 797 830 817
1538 1 tri 842 817 851
1539 1 tri 828 799 817
1540 1 tri 817 830 851
1541 1 tri 797 805 830
1542 1 tri 885 875 851
1543 1 tri 859 828 842
1544 1 tri 910 896 885
1545 1 tri 891 881 859
1546 1 tri 937 909 917
1547 1 tri 849 850 882
1548 1 tri 850 888 882
1549 1 tri 866 901 888
1550 1 tri 917 901 926
1551 1 tri 866 852 889
1552 1 tri 937 917 946
1553 1 tri 882 888 917
1554 1 tri 901 921 926
1555 1 tri 980 971 956
1556 1 tri 926 954 946
1557 1 tri 971 950 956
1558 1 tri 963 937 946
1559 1 tri 930 945 914
1560 1 tri 930 909 937
1561 1 tri 969 963 946
1562 1 tri 890 884 914
1563 1 tri 854 849 884
1564 1 tri 930 914 909
1565 1 tri 884 882 909
1566 1 tri 890 914 919
1567 1 tri 884 909 914
1568 1 tri 952 930 937
1569 1 tri 952 945 930
1570 1 tri 904 890 919
1571 1 tri 857 854 890
1572 1 tri 920 894 904
1573 1 tri 920 910 894
1574 1 tri 885 894 910
1575 1 tri 896 891 875
1576 1 tri 885 896 875
1577 1 tri 935 925 904
1578 1 tri 904 925 920
1579 1 tri 954 969 946
1580 1 tri 966 979 954
1581 1 tri 956 984 980
1582 1 tri 985 966 971
1583 1 tri 866 889 901
1584 1 tri 852 860 893
1585 1 tri 926 921 942
1586 1 tri 889 893 923
1587 1 tri 979 966 985
1588 1 tri 942 950 966
1589 1 tri 985 971 994
1590 1 tri 966 950 971
1591 1 tri 852 893 889
1592 1 tri 860 869 900
1593 1 tri 965 983 991
1594 1 tri 929 923 893
1595 1 tri 921 923 950
1596 1 tri 893 900 929
1597 1 tri 932 960 929
1598 1 tri 956 923 929
1599 1 tri 956 960 984
1600 1 tri 929 900 932
1601 1 tri 1006 999 984
1602 1 tri 994 971 980
1603 1 tri 994 980 999
1604 1 tri 1007 983 992
1605 1 tri 991 984 960
1606 1 tri 1002 991 983
1607 1 tri 1002 1014 991
1608 1 tri 1015 1025 1007
1609 1 tri 895 932 900
1610 1 tri 895 918 939
1611 1 tri 895 939 932
1612 1 tri 964 983 965
1613 1 tri 943 964 939
1614 1 tri 943 974 964
1615 1 tri 932 965 960
1616 1 tri 939 964 965
1617 1 tri 833 868 876
1618 1 tri 868 823 861
1619 1 tri 939 918 943
1620 1 tri 895 876 918
1621 1 tri 933 962 943
1622 1 tri 997 992 974
1623 1 tri 1021 1015 997
1624 1 tri 987 1010 997
1625 1 tri 1029 1042 1036
1626 1 tri 1007 1025 1018
1627 1 tri 1015 1021 1033
1628 1 tri 1029 1036 1021
1629 1 tri 1021 1036 1033
1630 1 tri 1035 1037 1048
1631 1 tri 1024 1043 1037
1632 1 tri 1024 1034 1043
1633 1 tri 1037 1043 1050
1634 1 tri 1050 1043 1054
1635 1 tri 1049 1058 1054
1636 1 tri 1052 1040 1045
1637 1 tri 1052 1049 1040
1638 1 tri 1059 1055 1064
1639 1 tri 1055 1047 1044
1640 1 tri 1062 1055 1053
1641 1 tri 1059 1047 1055
1642 1 tri 1053 1060 1062
1643 1 tri 1045 1031 1047
1644 1 tri 1012 993 1013
1645 1 tri 1030 1039 1023
1646 1 tri 1053 1055 1044
1647 1 tri 1028 1044 1032
1648 1 tri 1039 1053 1044
1649 1 tri 1043 1034 1049
1650 1 tri 1003 1001 978
1651 1 tri 1034 1040 1049
1652 1 tri 1034 1016 1026
1653 1 tri 1052 1045 1057
1654 1 tri 1040 1026 1045
1655 1 tri 1058 1052 1061
1656 1 tri 1058 1049 1052
1657 1 tri 1026 1005 1031
1658 1 tri 1016 1024 1003
1659 1 tri 1005 1012 1031
1660 1 tri 988 993 1012
1661 1 tri 1012 1013 1032
1662 1 tri 993 990 1013
1663 1 tri 957 972 990
1664 1 tri 927 922 947
1665 1 tri 990 1008 1013
1666 1 tri 990 1004 1008
1667 1 tri 1013 1028 1032
1668 1 tri 1023 1039 1028
1669 1 tri 913 936 922
1670 1 tri 982 1009 1004
1671 1 tri 961 982 972
1672 1 tri 982 990 972
1673 1 tri 947 961 972
1674 1 tri 981 1009 982
1675 1 tri 970 941 957
1676 1 tri 897 877 871
1677 1 tri 993 970 990
1678 1 tri 941 927 957
1679 1 tri 1003 1024 1001
1680 1 tri 940 941 967
1681 1 tri 967 970 993
1682 1 tri 967 941 970
1683 1 tri 924 949 908
1684 1 tri 944 906 908
1685 1 tri 988 959 967
1686 1 tri 988 1005 986
1687 1 tri 986 978 959
1688 1 tri 975 968 944
1689 1 tri 988 986 959
1690 1 tri 1016 1034 1024
1691 1 tri 986 1003 978
1692 1 tri 986 1005 1016
1693 1 tri 986 1016 1003
1694 1 tri 1005 1026 1016
1695 1 tri 1045 1026 1031
1696 1 tri 1040 1034 1026
1697 1 tri 1021 1010 1029
1698 1 tri 1021 997 1010
1699 1 tri 1029 1017 1035
1700 1 tri 1010 987 995
1701 1 tri 1035 1019 1037
1702 1 tri 1017 1001 1019
1703 1 tri 943 962 974
1704 1 tri 933 899 938
1705 1 tri 962 968 987
1706 1 tri 962 933 938
1707 1 tri 1001 975 978
1708 1 tri 1001 995 975
1709 1 tri 1017 995 1001
1710 1 tri 1017 1010 995
1711 1 tri 867 908 906
1712 1 tri 938 968 962
1713 1 tri 861 906 899
1714 1 tri 867 887 908
1715 1 tri 906 938 899
1716 1 tri 944 968 938
1717 1 tri 924 887 912
1718 1 tri 847 844 887
1719 1 tri 944 908 949
1720 1 tri 906 861 867
1721 1 tri 949 924 959
1722 1 tri 908 887 924
1723 1 tri 844 807 811
1724 1 tri 847 822 808
1725 1 tri 780 772 822
1726 1 tri 774 752 781
1727 1 tri 877 880 845
1728 1 tri 847 807 844
1729 1 tri 822 823 780
1730 1 tri 861 899 868
1731 1 tri 822 861 823
1732 1 tri 822 847 867
1733 1 tri 822 867 861
1734 1 tri 847 887 867
1735 1 tri 823 868 833
1736 1 tri 899 902 868
1737 1 tri 649 696 676
1738 1 tri 701 735 696
1739 1 tri 649 655 696
1740 1 tri 669 700 701
1741 1 tri 735 772 780
1742 1 tri 735 734 772
1743 1 tri 539 567 588
1744 1 tri 631 655 606
1745 1 tri 621 631 588
1746 1 tri 669 655 631
1747 1 tri 630 649 676
1748 1 tri 655 669 701
1749 1 tri 615 655 649
1750 1 tri 615 606 655
1751 1 tri 591 621 567
1752 1 tri 588 563 539
1753 1 tri 621 588 567
1754 1 tri 631 606 588
1755 1 tri 545 591 567
1756 1 tri 660 700 669
1757 1 tri 627 658 621
1758 1 tri 658 692 688
1759 1 tri 700 723 734
1760 1 tri 700 660 688
1761 1 tri 715 749 723
1762 1 tri 807 808 774
1763 1 tri 772 774 808
1764 1 tri 772 734 774
1765 1 tri 690 692 668
1766 1 tri 712 715 692
1767 1 tri 688 715 723
1768 1 tri 764 738 740
1769 1 tri 781 807 774
1770 1 tri 752 723 749
1771 1 tri 569 591 545
1772 1 tri 627 621 591
1773 1 tri 569 609 591
1774 1 tri 658 660 621
1775 1 tri 643 658 627
1776 1 tri 668 692 658
1777 1 tri 658 688 660
1778 1 tri 692 715 688
1779 1 tri 525 569 545
1780 1 tri 612 580 590
1781 1 tri 580 594 555
1782 1 tri 643 627 609
1783 1 tri 594 628 609
1784 1 tri 668 658 643
1785 1 tri 670 691 661
1786 1 tri 668 643 661
1787 1 tri 714 712 690
1788 1 tri 712 692 690
1789 1 tri 714 738 712
1790 1 tri 740 762 764
1791 1 tri 715 743 749
1792 1 tri 715 712 743
1793 1 tri 743 768 777
1794 1 tri 743 738 768
1795 1 tri 807 781 811
1796 1 tri 768 793 802
1797 1 tri 793 816 802
1798 1 tri 897 922 927
1799 1 tri 743 777 749
1800 1 tri 811 845 844
1801 1 tri 749 781 752
1802 1 tri 777 802 811
1803 1 tri 777 811 781
1804 1 tri 802 837 811
1805 1 tri 811 837 845
1806 1 tri 897 892 922
1807 1 tri 887 880 912
1808 1 tri 844 845 880
1809 1 tri 940 911 941
1810 1 tri 912 880 911
1811 1 tri 959 940 967
1812 1 tri 924 912 940
1813 1 tri 816 843 837
1814 1 tri 816 806 836
1815 1 tri 837 871 877
1816 1 tri 843 864 871
1817 1 tri 836 864 843
1818 1 tri 864 883 892
1819 1 tri 911 897 927
1820 1 tri 911 877 897
1821 1 tri 764 762 785
1822 1 tri 740 731 762
1823 1 tri 793 764 785
1824 1 tri 768 738 764
1825 1 tri 744 769 751
1826 1 tri 765 788 798
1827 1 tri 707 716 695
1828 1 tri 736 744 716
1829 1 tri 765 744 736
1830 1 tri 751 729 744
1831 1 tri 744 765 769
1832 1 tri 758 788 765
1833 1 tri 651 674 647
1834 1 tri 702 707 684
1835 1 tri 682 706 687
1836 1 tri 695 716 706
1837 1 tri 684 707 695
1838 1 tri 726 736 707
1839 1 tri 659 682 665
1840 1 tri 706 729 709
1841 1 tri 731 714 709
1842 1 tri 690 661 691
1843 1 tri 740 714 731
1844 1 tri 691 687 709
1845 1 tri 709 714 691
1846 1 tri 740 738 714
1847 1 tri 633 641 616
1848 1 tri 665 670 644
1849 1 tri 665 644 641
1850 1 tri 661 643 628
1851 1 tri 644 670 661
1852 1 tri 665 687 670
1853 1 tri 536 580 555
1854 1 tri 551 561 590
1855 1 tri 569 594 609
1856 1 tri 580 612 594
1857 1 tri 644 612 641
1858 1 tri 644 628 612
1859 1 tri 609 628 643
1860 1 tri 594 612 628
1861 1 tri 548 573 582
1862 1 tri 559 587 595
1863 1 tri 551 590 580
1864 1 tri 561 582 590
1865 1 tri 612 616 641
1866 1 tri 590 611 616
1867 1 tri 641 633 659
1868 1 tri 611 604 637
1869 1 tri 657 667 637
1870 1 tri 633 611 637
1871 1 tri 695 667 684
1872 1 tri 659 637 667
1873 1 tri 665 682 687
1874 1 tri 659 667 682
1875 1 tri 587 572 613
1876 1 tri 572 549 596
1877 1 tri 657 626 647
1878 1 tri 637 604 626
1879 1 tri 620 651 647
1880 1 tri 613 636 651
1881 1 tri 578 596 549
1882 1 tri 613 620 587
1883 1 tri 595 587 620
1884 1 tri 559 547 587
1885 1 tri 626 595 620
1886 1 tri 573 559 595
1887 1 tri 624 640 584
1888 1 tri 516 578 549
1889 1 tri 550 603 578
1890 1 tri 565 584 521
1891 1 tri 565 624 584
1892 1 tri 603 623 578
1893 1 tri 623 636 596
1894 1 tri 636 623 662
1895 1 tri 596 578 623
1896 1 tri 672 636 662
1897 1 tri 613 596 636
1898 1 tri 694 653 685
1899 1 tri 662 623 653
1900 1 tri 717 726 702
1901 1 tri 651 636 672
1902 1 tri 653 694 662
1903 1 tri 685 730 694
1904 1 tri 662 698 672
1905 1 tri 694 728 698
1906 1 tri 674 657 647
1907 1 tri 684 667 657
1908 1 tri 672 689 651
1909 1 tri 702 726 707
1910 1 tri 651 689 674
1911 1 tri 672 698 689
1912 1 tri 689 702 674
1913 1 tri 689 717 702
1914 1 tri 698 719 689
1915 1 tri 745 758 726
1916 1 tri 719 757 717
1917 1 tri 757 776 745
1918 1 tri 717 757 745
1919 1 tri 916 870 915
1920 1 tri 757 719 750
1921 1 tri 717 689 719
1922 1 tri 730 721 766
1923 1 tri 771 730 766
1924 1 tri 728 694 730
1925 1 tri 810 771 766
1926 1 tri 810 820 771
1927 1 tri 750 789 757
1928 1 tri 750 771 789
1929 1 tri 870 820 863
1930 1 tri 863 820 810
1931 1 tri 870 831 820
1932 1 tri 832 795 831
1933 1 tri 789 820 831
1934 1 tri 870 863 915
1935 1 tri 886 840 856
1936 1 tri 831 870 874
1937 1 tri 809 856 840
1938 1 tri 886 905 907
1939 1 tri 788 776 809
1940 1 tri 874 905 856
1941 1 tri 905 886 856
1942 1 tri 907 898 873
1943 1 tri 758 776 788
1944 1 tri 757 789 795
1945 1 tri 757 795 776
1946 1 tri 789 831 795
1947 1 tri 812 809 840
1948 1 tri 776 795 809
1949 1 tri 809 832 856
1950 1 tri 809 795 832
1951 1 tri 765 798 769
1952 1 tri 818 841 827
1953 1 tri 818 798 835
1954 1 tri 794 769 798
1955 1 tri 835 812 840
1956 1 tri 798 788 812
1957 1 tri 827 806 800
1958 1 tri 785 773 800
1959 1 tri 793 806 816
1960 1 tri 785 800 806
1961 1 tri 798 818 794
1962 1 tri 835 841 818
1963 1 tri 855 836 827
1964 1 tri 836 806 827
1965 1 tri 841 855 827
1966 1 tri 843 816 836
1967 1 tri 855 864 836
1968 1 tri 892 871 864
1969 1 tri 841 878 855
1970 1 tri 913 922 892
1971 1 tri 865 878 841
1972 1 tri 883 864 855
1973 1 tri 840 873 835
1974 1 tri 936 928 955
1975 1 tri 886 873 840
1976 1 tri 886 907 873
1977 1 tri 855 878 883
1978 1 tri 898 907 931
1979 1 tri 865 898 878
1980 1 tri 898 948 928
1981 1 tri 955 948 976
1982 1 tri 928 903 898
1983 1 tri 981 955 976
1984 1 tri 936 913 928
1985 1 tri 903 913 883
1986 1 tri 903 928 913
1987 1 tri 961 936 955
1988 1 tri 947 922 936
1989 1 tri 936 961 947
1990 1 tri 955 981 961
1991 1 tri 961 981 982
1992 1 tri 976 1000 981
1993 1 tri 1009 1000 1022
1994 1 tri 1009 981 1000
1995 1 tri 1046 1030 1038
1996 1 tri 1023 1009 1030
1997 1 tri 1046 1056 1060
1998 1 tri 1022 998 1020
1999 1 tri 1000 976 998
2000 1 tri 1030 1022 1038
2001 1 tri 1000 998 1022
2002 1 tri 1038 1041 1051
2003 1 tri 1038 1051 1056
2004 1 tri 934 977 958
2005 1 tri 1020 998 996
2006 1 tri 1027 1020 996
2007 1 tri 1041 1022 1020
2008 1 tri 1020 1027 1041
2009 1 tri 878 898 903
2010 1 tri 865 873 898
2011 1 tri 934 958 931
2012 1 tri 958 948 931
2013 1 tri 905 951 934
2014 1 tri 996 998 973
2015 1 tri 948 973 976
2016 1 tri 958 996 973
2017 1 tri 953 951 916
2018 1 tri 951 977 934
2019 1 tri 905 934 907
2020 1 tri 905 916 951
2021 1 tri 915 953 916
2022 1 tri 977 996 958
2023 1 tri 977 951 989
2024 1 tri 953 989 951
2025 1 tri 989 1011 977
2026 1 tri 996 1011 1027
2027 1 tri 996 977 1011
2028 2 tri 1644 1645 1606
2029 2 tri 1146 1191 1155
2030 2 tri 1237 1206 1235
2031 2 tri 1173 1206 1205
2032 2 tri 1370 1399 1387
2033 2 tri 1156 1154 1116
2034 2 tri 1214 1207 1250
2035 2 tri 1504 1482 1477
2036 2 tri 1461 1440 1452
2037 2 tri 1338 1365 1344
2038 2 tri 1283 1286 1312
2039 2 tri 1379 1388 1365
2040 2 tri 1319 1293 1285
2041 2 tri 1466 1498 1476
2042 2 tri 1551 1539 1525
2043 2 tri 1582 1564 1553
2044 2 tri 1553 1564 1544
2045 2 tri 1667 1691 1676
2046 2 tri 1498 1509 1527
2047 2 tri 1166 1133 1135
2048 2 tri 1143 1182 1144
2049 2 tri 1185 1201 1223
2050 2 tri 1625 1607 1637
2051 2 tri 1252 1208 1234
2052 2 tri 1244 1213 1221
2053 2 tri 1271 1239 1240
2054 2 tri 1328 1304 1295
2055 2 tri 1327 1349 1346
2056 2 tri 1340 1307 1341
2057 2 tri 1505 1494 1488
2058 2 tri 1098 1131 1097
2059 2 tri 1156 1189 1154
2060 2 tri 1091 1093 1123
2061 2 tri 1117 1114 1081
2062 2 tri 1336 1329 1300
2063 2 tri 1376 1387 1405
2064 2 tri 1467 1474 1453
2065 2 tri 1492 1484 1518
2066 2 tri 1160 1114 1117
2067 2 tri 1515 1539 1535
2068 2 tri 1462 461 1450
2069 2 tri 1425 1421 1447
2070 2 tri 1349 1359 1377
2071 2 tri 1415 1405 1387
2072 2 tri 1369 1385 1359
2073 2 tri 446 1513 1502
2074 2 tri 1459 1461 1482
2075 2 tri 1542 1517 1520
2076 2 tri 1620 394 388
2077 2 tri 1538 1544 1556
2078 2 tri 1605 1604 1628
2079 2 tri 1679 1648 1665
2080 2 tri 1538 1525 1513
2081 2 tri 1694 1689 1720
2082 2 tri 1448 1413 1423
2083 2 tri 1596 1569 1590
2084 2 tri 1491 1479 461
2085 2 tri 1508 1481 1482
2086 2 tri 1754 1738 1766
2087 2 tri 1584 1564 1582
2088 2 tri 1650 1674 1663
2089 2 tri 1557 1534 1542
2090 2 tri 1665 1640 1653
2091 2 tri 400 1592 408
2092 2 tri 1757 1747 1769
2093 2 tri 1676 1665 1653
2094 2 tri 1744 1738 1712
2095 2 tri 1650 1643 1626
2096 2 tri 1788 1802 1793
2097 2 tri 1402 1444 1407
2098 2 tri 1552 1572 1570
2099 2 tri 1570 1587 1586
2100 2 tri 1622 1600 1609
2101 2 tri 353 358 1649
2102 2 tri 1587 1612 1597
2103 2 tri 1316 1353 1328
2104 2 tri 1529 1546 1512
2105 2 tri 1545 1559 1529
2106 2 tri 1574 1588 1562
2107 2 tri 1675 1697 1688
2108 2 tri 1609 1613 1626
2109 2 tri 1716 1722 1741
2110 2 tri 319 1736 327
2111 2 tri 1769 1774 1757
2112 2 tri 319 1747 1736
2113 2 tri 1737 1734 1709
2114 2 tri 1783 1769 1776
2115 2 tri 1204 1243 1229
2116 2 tri 1164 1208 1190
2117 2 tri 1164 1159 1124
2118 2 tri 1130 1171 1172
2119 2 tri 1175 1183 1213
2120 2 tri 1253 1213 1244
2121 2 tri 1180 1166 1135
2122 2 tri 1180 1135 1138
2123 2 tri 1289 1309 1278
2124 2 tri 1213 1183 1221
2125 2 tri 1258 1289 1278
2126 2 tri 1262 1264 1234
2127 2 tri 1436 1472 1475
2128 2 tri 1313 1285 1278
2129 2 tri 1381 1352 1350
2130 2 tri 1428 1382 1383
2131 2 tri 1287 1276 1252
2132 2 tri 1252 1225 1208
2133 2 tri 1243 1225 1252
2134 2 tri 1287 1293 1317
2135 2 tri 1267 1302 1284
2136 2 tri 1276 1287 1314
2137 2 tri 1267 1254 1229
2138 2 tri 1262 1234 1231
2139 2 tri 1264 1252 1234
2140 2 tri 1287 1252 1264
2141 2 tri 1276 1243 1252
2142 2 tri 1269 1232 1254
2143 2 tri 1306 1269 1284
2144 2 tri 1232 1191 1217
2145 2 tri 1340 1303 1307
2146 2 tri 1324 1302 1343
2147 2 tri 1306 1341 1307
2148 2 tri 1380 1343 1351
2149 2 tri 1373 1407 1374
2150 2 tri 1341 1306 1324
2151 2 tri 1178 1206 1173
2152 2 tri 1240 1201 1199
2153 2 tri 1280 1265 1297
2154 2 tri 1265 1223 1239
2155 2 tri 1295 1316 1328
2156 2 tri 1316 1295 1280
2157 2 tri 1128 1094 1131
2158 2 tri 1139 1098 1137
2159 2 tri 1182 1178 1144
2160 2 tri 1144 1103 1143
2161 2 tri 1240 1239 1201
2162 2 tri 1155 1158 1111
2163 2 tri 1128 1093 1094
2164 2 tri 1157 1198 1192
2165 2 tri 1192 1212 1163
2166 2 tri 1112 1154 1148
2167 2 tri 1167 1122 1163
2168 2 tri 1078 1079 1107
2169 2 tri 1069 1089 1068
2170 2 tri 1102 1074 1075
2171 2 tri 1148 1108 1112
2172 2 tri 1136 1099 1095
2173 2 tri 1078 1109 1077
2174 2 tri 1101 1076 1104
2175 2 tri 1219 1259 1228
2176 2 tri 1404 1423 1390
2177 2 tri 1327 1301 1311
2178 2 tri 1089 1129 1087
2179 2 tri 1275 1247 1277
2180 2 tri 1071 1092 1096
2181 2 tri 1096 1092 1134
2182 2 tri 1070 1096 1090
2183 2 tri 1181 1188 1220
2184 2 tri 1174 1179 1215
2185 2 tri 1132 1096 1141
2186 2 tri 1298 1277 1301
2187 2 tri 1249 1216 1220
2188 2 tri 1129 1174 1170
2189 2 tri 1356 1323 1344
2190 2 tri 1282 1250 1242
2191 2 tri 1165 1114 1160
2192 2 tri 1288 1255 1250
2193 2 tri 1117 1081 1084
2194 2 tri 1274 1299 1310
2195 2 tri 1298 1301 1322
2196 2 tri 1242 1274 1282
2197 2 tri 1299 1275 1298
2198 2 tri 1299 1320 1330
2199 2 tri 1445 1419 1427
2200 2 tri 1358 1337 1346
2201 2 tri 1320 1299 1298
2202 2 tri 1371 1346 1366
2203 2 tri 1322 1301 1327
2204 2 tri 1321 1294 1329
2205 2 tri 1367 1376 1395
2206 2 tri 1251 1222 1257
2207 2 tri 1151 1107 1118
2208 2 tri 1357 1376 1348
2209 2 tri 1426 1406 1414
2210 2 tri 1241 1226 1196
2211 2 tri 1195 1230 1187
2212 2 tri 1272 1300 1266
2213 2 tri 1329 1348 1321
2214 2 tri 1342 1312 1321
2215 2 tri 1249 1277 1247
2216 2 tri 1167 1196 1156
2217 2 tri 1226 1260 1224
2218 2 tri 1202 1236 1233
2219 2 tri 1305 1273 1291
2220 2 tri 1212 1241 1196
2221 2 tri 1291 1256 1261
2222 2 tri 1212 1256 1241
2223 2 tri 1318 1292 1304
2224 2 tri 1256 1273 1241
2225 2 tri 1353 1363 1328
2226 2 tri 1227 1261 1256
2227 2 tri 1227 1198 1233
2228 2 tri 1420 1395 1405
2229 2 tri 1348 1329 1357
2230 2 tri 1369 1367 1389
2231 2 tri 1376 1405 1395
2232 2 tri 1308 1272 1279
2233 2 tri 446 442 1513
2234 2 tri 1400 1386 1430
2235 2 tri 1537 1521 1524
2236 2 tri 1471 1467 1447
2237 2 tri 1535 1506 1515
2238 2 tri 1491 461 454
2239 2 tri 454 1502 1491
2240 2 tri 446 1502 454
2241 2 tri 1535 1539 1563
2242 2 tri 1369 1389 1385
2243 2 tri 1395 1414 1389
2244 2 tri 1420 1429 1441
2245 2 tri 1429 1415 1443
2246 2 tri 1426 1435 474
2247 2 tri 1450 461 469
2248 2 tri 1333 1342 1359
2249 2 tri 1367 1395 1389
2250 2 tri 1408 1385 1406
2251 2 tri 1389 1414 1406
2252 2 tri 1522 1518 1554
2253 2 tri 1290 1255 1288
2254 2 tri 1397 1388 1379
2255 2 tri 1384 1377 1398
2256 2 tri 505 1358 1371
2257 2 tri 1468 469 1479
2258 2 tri 1439 1458 1427
2259 2 tri 1439 1410 1424
2260 2 tri 1511 1484 1481
2261 2 tri 1438 1409 1419
2262 2 tri 1554 1566 1522
2263 2 tri 486 1408 479
2264 2 tri 1426 1414 1435
2265 2 tri 1548 1577 1585
2266 2 tri 1484 1458 1481
2267 2 tri 1493 1504 1477
2268 2 tri 1481 1458 1459
2269 2 tri 1513 1525 1502
2270 2 tri 1513 1528 1538
2271 2 tri 1590 1569 1563
2272 2 tri 1518 1511 1548
2273 2 tri 1522 1495 1492
2274 2 tri 1495 1456 1464
2275 2 tri 1479 1506 1493
2276 2 tri 1508 1533 1541
2277 2 tri 1548 1511 1541
2278 2 tri 1585 1616 1601
2279 2 tri 1657 1619 1632
2280 2 tri 1684 1645 1678
2281 2 tri 1616 1645 1661
2282 2 tri 1745 1726 1706
2283 2 tri 1644 1669 1678
2284 2 tri 1628 1604 1627
2285 2 tri 1683 1689 1658
2286 2 tri 1657 1669 1634
2287 2 tri 1770 1786 1785
2288 2 tri 1694 1706 1669
2289 2 tri 1744 1775 1766
2290 2 tri 1754 1720 1738
2291 2 tri 1710 1689 1683
2292 2 tri 1501 442 1487
2293 2 tri 436 1528 442
2294 2 tri 1584 1582 1604
2295 2 tri 1617 1603 1592
2296 2 tri 1605 1584 1604
2297 2 tri 1582 1591 1608
2298 2 tri 1553 1567 1582
2299 2 tri 1578 1592 1603
2300 2 tri 408 1592 1578
2301 2 tri 1597 1586 1587
2302 2 tri 1627 1608 1621
2303 2 tri 1591 1578 1603
2304 2 tri 1653 1630 1646
2305 2 tri 1610 1592 400
2306 2 tri 1693 1721 1712
2307 2 tri 1640 1621 1617
2308 2 tri 1679 1712 1683
2309 2 tri 1710 1720 1689
2310 2 tri 1788 1768 1779
2311 2 tri 1639 1650 1626
2312 2 tri 1762 1737 1759
2313 2 tri 1776 1769 1758
2314 2 tri 319 313 1747
2315 2 tri 1758 1769 1747
2316 2 tri 1790 1774 1783
2317 2 tri 1772 1776 1763
2318 2 tri 1690 1717 1709
2319 2 tri 1610 394 1620
2320 2 tri 1662 1687 1674
2321 2 tri 1723 1743 1730
2322 2 tri 1685 1652 1672
2323 2 tri 334 1723 1713
2324 2 tri 1692 1695 1680
2325 2 tri 1667 1676 1653
2326 2 tri 1730 1743 1749
2327 2 tri 1715 1703 1691
2328 2 tri 1730 1749 1731
2329 2 tri 1781 1773 1793
2330 2 tri 1446 1466 1476
2331 2 tri 1536 1562 1552
2332 2 tri 1612 375 381
2333 2 tri 1633 1646 1620
2334 2 tri 1449 1421 1431
2335 2 tri 1318 1291 1292
2336 2 tri 1517 1507 1485
2337 2 tri 1374 1386 1353
2338 2 tri 1512 1509 1480
2339 2 tri 1512 1536 1509
2340 2 tri 1470 1442 1430
2341 2 tri 1334 1297 1303
2342 2 tri 1498 1466 1480
2343 2 tri 1339 1304 1328
2344 2 tri 1529 1499 1503
2345 2 tri 1512 1480 1478
2346 2 tri 1509 1536 1527
2347 2 tri 1546 1562 1536
2348 2 tri 1559 1574 1546
2349 2 tri 1615 1622 1635
2350 2 tri 1659 1631 1651
2351 2 tri 353 348 1692
2352 2 tri 1490 1454 1444
2353 2 tri 1613 1631 1639
2354 2 tri 1624 1625 1655
2355 2 tri 1624 1611 1595
2356 2 tri 1490 1543 1526
2357 2 tri 1343 1302 1314
2358 2 tri 1437 1422 1392
2359 2 tri 1314 1302 1276
2360 2 tri 1636 1638 1598
2361 2 tri 1530 1545 1503
2362 2 tri 1428 1417 1382
2363 2 tri 1382 1417 1381
2364 2 tri 1422 1396 1380
2365 2 tri 1486 1472 1437
2366 2 tri 1579 1568 1595
2367 2 tri 1540 1497 1531
2368 2 tri 1381 1392 1352
2369 2 tri 1594 1540 1580
2370 2 tri 1313 1350 1319
2371 2 tri 1629 1573 1594
2372 2 tri 1598 1618 1583
2373 2 tri 1673 1629 1641
2374 2 tri 1602 1598 1561
2375 2 tri 1673 1666 1629
2376 2 tri 1555 1598 1583
2377 2 tri 1671 1638 1636
2378 2 tri 1637 1656 1625
2379 2 tri 1655 1651 1624
2380 2 tri 1718 1704 1696
2381 2 tri 1702 1722 1699
2382 2 tri 307 1763 1758
2383 2 tri 1696 1685 1716
2384 2 tri 307 1758 313
2385 2 tri 1711 1724 1728
2386 2 tri 301 1763 307
2387 2 tri 1789 1782 1795
2388 2 tri 1748 1741 1722
2389 2 tri 1751 1765 1756
2390 2 tri 1760 1748 1767
2391 2 tri 1777 1760 1767
2392 2 tri 1741 1748 1760
2393 2 tri 1153 1119 1161
2394 2 tri 1113 1146 1155
2395 2 tri 1152 1201 1185
2396 2 tri 1199 1232 1240
2397 2 tri 1115 1146 1113
2398 2 tri 1217 1254 1232
2399 2 tri 1204 1229 1193
2400 2 tri 1208 1225 1190
2401 2 tri 1164 1190 1159
2402 2 tri 1133 1166 1171
2403 2 tri 1175 1140 1183
2404 2 tri 1180 1138 1175
2405 2 tri 1180 1175 1213
2406 2 tri 1138 1140 1175
2407 2 tri 1253 1231 1218
2408 2 tri 1203 1234 1208
2409 2 tri 1213 1218 1180
2410 2 tri 1203 1208 1172
2411 2 tri 1133 1171 1130
2412 2 tri 1166 1197 1171
2413 2 tri 1130 1172 1127
2414 2 tri 1171 1203 1172
2415 2 tri 1180 1197 1166
2416 2 tri 1231 1234 1203
2417 2 tri 1197 1203 1171
2418 2 tri 1197 1231 1203
2419 2 tri 1218 1231 1197
2420 2 tri 1262 1293 1264
2421 2 tri 1180 1218 1197
2422 2 tri 1213 1253 1218
2423 2 tri 1244 1221 1258
2424 2 tri 1325 1345 1309
2425 2 tri 1345 1350 1313
2426 2 tri 1278 1309 1313
2427 2 tri 1289 1325 1309
2428 2 tri 1383 1345 1361
2429 2 tri 1361 1345 1325
2430 2 tri 1383 1382 1345
2431 2 tri 1383 1361 1412
2432 2 tri 1262 1285 1293
2433 2 tri 1309 1345 1313
2434 2 tri 1319 1317 1293
2435 2 tri 1380 1392 1422
2436 2 tri 1352 1319 1350
2437 2 tri 1352 1317 1319
2438 2 tri 1253 1262 1231
2439 2 tri 1285 1313 1319
2440 2 tri 1244 1278 1253
2441 2 tri 1244 1258 1278
2442 2 tri 1253 1285 1262
2443 2 tri 1253 1278 1285
2444 2 tri 1267 1243 1276
2445 2 tri 1176 1217 1191
2446 2 tri 1293 1287 1264
2447 2 tri 1317 1314 1287
2448 2 tri 1352 1351 1317
2449 2 tri 1324 1364 1341
2450 2 tri 1317 1351 1314
2451 2 tri 1396 1364 1343
2452 2 tri 1314 1351 1343
2453 2 tri 1352 1392 1351
2454 2 tri 1284 1269 1254
2455 2 tri 1307 1303 1271
2456 2 tri 1269 1306 1307
2457 2 tri 1284 1302 1324
2458 2 tri 1284 1324 1306
2459 2 tri 1343 1364 1324
2460 2 tri 1115 1153 1146
2461 2 tri 1159 1121 1124
2462 2 tri 1267 1229 1243
2463 2 tri 1254 1217 1229
2464 2 tri 1302 1267 1276
2465 2 tri 1284 1254 1267
2466 2 tri 1155 1191 1199
2467 2 tri 1146 1176 1191
2468 2 tri 1185 1145 1152
2469 2 tri 1191 1232 1199
2470 2 tri 1127 1164 1124
2471 2 tri 1225 1243 1204
2472 2 tri 1121 1159 1161
2473 2 tri 1229 1217 1193
2474 2 tri 1161 1159 1204
2475 2 tri 1190 1225 1204
2476 2 tri 1204 1159 1190
2477 2 tri 1204 1193 1161
2478 2 tri 1153 1161 1193
2479 2 tri 1119 1121 1161
2480 2 tri 1172 1164 1127
2481 2 tri 1172 1208 1164
2482 2 tri 1217 1176 1193
2483 2 tri 1115 1119 1153
2484 2 tri 1201 1152 1158
2485 2 tri 1111 1113 1155
2486 2 tri 1153 1176 1146
2487 2 tri 1153 1193 1176
2488 2 tri 1143 1145 1185
2489 2 tri 1143 1105 1145
2490 2 tri 1105 1106 1145
2491 2 tri 1158 1199 1201
2492 2 tri 1144 1137 1100
2493 2 tri 1178 1139 1137
2494 2 tri 1270 1237 1263
2495 2 tri 1185 1182 1143
2496 2 tri 1210 1248 1235
2497 2 tri 1144 1178 1137
2498 2 tri 1268 1270 1304
2499 2 tri 1236 1205 1237
2500 2 tri 1178 1182 1210
2501 2 tri 1110 1158 1152
2502 2 tri 1155 1199 1158
2503 2 tri 1223 1182 1185
2504 2 tri 1223 1248 1210
2505 2 tri 1178 1210 1206
2506 2 tri 1182 1223 1210
2507 2 tri 1271 1265 1239
2508 2 tri 1223 1201 1239
2509 2 tri 1269 1240 1232
2510 2 tri 1271 1303 1265
2511 2 tri 1297 1265 1303
2512 2 tri 1248 1223 1265
2513 2 tri 1269 1271 1240
2514 2 tri 1269 1307 1271
2515 2 tri 1364 1373 1341
2516 2 tri 1334 1316 1297
2517 2 tri 1340 1334 1303
2518 2 tri 1280 1295 1263
2519 2 tri 1374 1334 1340
2520 2 tri 1353 1316 1334
2521 2 tri 1374 1353 1334
2522 2 tri 1386 1363 1353
2523 2 tri 1210 1235 1206
2524 2 tri 1280 1297 1316
2525 2 tri 1235 1263 1237
2526 2 tri 1235 1248 1280
2527 2 tri 1235 1280 1263
2528 2 tri 1248 1265 1280
2529 2 tri 1295 1270 1263
2530 2 tri 1173 1169 1131
2531 2 tri 1292 1268 1304
2532 2 tri 1233 1198 1202
2533 2 tri 1304 1270 1295
2534 2 tri 1268 1236 1270
2535 2 tri 1433 1416 1391
2536 2 tri 1273 1260 1241
2537 2 tri 1451 1411 1442
2538 2 tri 1339 1328 1363
2539 2 tri 1318 1326 1291
2540 2 tri 1336 1360 1370
2541 2 tri 1363 1375 1339
2542 2 tri 1391 1393 1362
2543 2 tri 1354 1362 1326
2544 2 tri 1360 1368 1394
2545 2 tri 1268 1292 1261
2546 2 tri 1326 1362 1335
2547 2 tri 1339 1318 1304
2548 2 tri 1291 1261 1292
2549 2 tri 1354 1318 1339
2550 2 tri 1354 1326 1318
2551 2 tri 1167 1212 1196
2552 2 tri 1227 1256 1212
2553 2 tri 1261 1233 1268
2554 2 tri 1261 1227 1233
2555 2 tri 1236 1202 1205
2556 2 tri 1128 1123 1093
2557 2 tri 1237 1205 1206
2558 2 tri 1173 1131 1139
2559 2 tri 1270 1236 1237
2560 2 tri 1268 1233 1236
2561 2 tri 1198 1162 1202
2562 2 tri 1123 1125 1091
2563 2 tri 1202 1169 1205
2564 2 tri 1202 1162 1169
2565 2 tri 1169 1173 1205
2566 2 tri 1139 1178 1173
2567 2 tri 1198 1157 1162
2568 2 tri 1192 1227 1212
2569 2 tri 1125 1163 1122
2570 2 tri 1125 1157 1163
2571 2 tri 1157 1192 1163
2572 2 tri 1198 1227 1192
2573 2 tri 1122 1088 1125
2574 2 tri 1085 1116 1083
2575 2 tri 1088 1091 1125
2576 2 tri 1131 1169 1128
2577 2 tri 1131 1094 1097
2578 2 tri 1139 1131 1098
2579 2 tri 1157 1123 1162
2580 2 tri 1157 1125 1123
2581 2 tri 1162 1128 1169
2582 2 tri 1162 1123 1128
2583 2 tri 1137 1098 1100
2584 2 tri 1144 1100 1103
2585 2 tri 1103 1105 1143
2586 2 tri 1152 1145 1106
2587 2 tri 1158 1110 1111
2588 2 tri 1152 1106 1110
2589 2 tri 1086 1120 1085
2590 2 tri 1122 1086 1088
2591 2 tri 1122 1120 1086
2592 2 tri 1167 1120 1122
2593 2 tri 1116 1085 1120
2594 2 tri 1116 1154 1112
2595 2 tri 1296 1260 1273
2596 2 tri 1118 1080 1108
2597 2 tri 1080 1082 1108
2598 2 tri 1083 1116 1112
2599 2 tri 1082 1112 1108
2600 2 tri 1083 1112 1082
2601 2 tri 1109 1078 1107
2602 2 tri 1109 1107 1151
2603 2 tri 1079 1080 1118
2604 2 tri 1186 1224 1209
2605 2 tri 1107 1079 1118
2606 2 tri 1184 1194 1147
2607 2 tri 1102 1136 1095
2608 2 tri 1142 1104 1150
2609 2 tri 1104 1109 1150
2610 2 tri 1104 1077 1109
2611 2 tri 1101 1075 1076
2612 2 tri 1076 1077 1104
2613 2 tri 1084 1087 1126
2614 2 tri 1090 1089 1069
2615 2 tri 1067 1084 1066
2616 2 tri 1068 1087 1067
2617 2 tri 1066 1084 1081
2618 2 tri 1067 1087 1084
2619 2 tri 1126 1117 1084
2620 2 tri 1200 1211 1242
2621 2 tri 1068 1089 1087
2622 2 tri 1132 1179 1174
2623 2 tri 1087 1129 1126
2624 2 tri 1089 1090 1132
2625 2 tri 1089 1132 1129
2626 2 tri 1090 1096 1132
2627 2 tri 1070 1071 1096
2628 2 tri 1071 1072 1092
2629 2 tri 1141 1134 1181
2630 2 tri 1092 1099 1134
2631 2 tri 1069 1070 1090
2632 2 tri 1073 1099 1072
2633 2 tri 1099 1092 1072
2634 2 tri 1101 1102 1075
2635 2 tri 1095 1073 1074
2636 2 tri 1102 1095 1074
2637 2 tri 1099 1073 1095
2638 2 tri 1142 1184 1147
2639 2 tri 1136 1149 1099
2640 2 tri 1181 1149 1188
2641 2 tri 1134 1099 1149
2642 2 tri 1141 1181 1179
2643 2 tri 1134 1149 1181
2644 2 tri 1281 1249 1251
2645 2 tri 1216 1247 1215
2646 2 tri 1286 1259 1294
2647 2 tri 1220 1188 1222
2648 2 tri 1311 1281 1283
2649 2 tri 1301 1277 1281
2650 2 tri 1215 1247 1245
2651 2 tri 1216 1181 1220
2652 2 tri 1251 1249 1220
2653 2 tri 1281 1277 1249
2654 2 tri 1132 1141 1179
2655 2 tri 1096 1134 1141
2656 2 tri 1170 1174 1211
2657 2 tri 1179 1216 1215
2658 2 tri 1247 1216 1249
2659 2 tri 1179 1181 1216
2660 2 tri 1126 1170 1160
2661 2 tri 1126 1129 1170
2662 2 tri 1211 1174 1215
2663 2 tri 1129 1132 1174
2664 2 tri 1126 1160 1117
2665 2 tri 1170 1211 1200
2666 2 tri 1200 1207 1160
2667 2 tri 1207 1200 1242
2668 2 tri 1160 1170 1200
2669 2 tri 1255 1214 1250
2670 2 tri 1165 1160 1207
2671 2 tri 1165 1207 1214
2672 2 tri 1207 1242 1250
2673 2 tri 1211 1215 1245
2674 2 tri 1274 1245 1275
2675 2 tri 1242 1211 1245
2676 2 tri 1282 1274 1310
2677 2 tri 1242 1245 1274
2678 2 tri 1274 1275 1299
2679 2 tri 1245 1247 1275
2680 2 tri 1338 1344 1315
2681 2 tri 1288 1250 1282
2682 2 tri 1282 1315 1288
2683 2 tri 1282 1310 1315
2684 2 tri 1323 1290 1288
2685 2 tri 1315 1323 1288
2686 2 tri 1332 1290 1323
2687 2 tri 1344 1323 1315
2688 2 tri 1356 1378 1390
2689 2 tri 1372 1332 1356
2690 2 tri 1310 1338 1315
2691 2 tri 1378 1356 1344
2692 2 tri 1323 1356 1332
2693 2 tri 1390 1413 1372
2694 2 tri 1330 1338 1310
2695 2 tri 1365 1378 1344
2696 2 tri 1330 1355 1338
2697 2 tri 1347 1358 509
2698 2 tri 1355 1365 1338
2699 2 tri 1355 509 1379
2700 2 tri 1337 1358 1347
2701 2 tri 499 1384 490
2702 2 tri 1347 509 1355
2703 2 tri 505 1371 499
2704 2 tri 1320 1298 1322
2705 2 tri 1275 1277 1298
2706 2 tri 1347 1320 1337
2707 2 tri 1347 1355 1330
2708 2 tri 1299 1330 1310
2709 2 tri 1320 1347 1330
2710 2 tri 1311 1283 1312
2711 2 tri 1281 1251 1283
2712 2 tri 1281 1311 1301
2713 2 tri 1333 1359 1349
2714 2 tri 1337 1322 1346
2715 2 tri 1337 1320 1322
2716 2 tri 1333 1327 1311
2717 2 tri 1346 1322 1327
2718 2 tri 1312 1333 1311
2719 2 tri 1312 1342 1333
2720 2 tri 1346 1349 1366
2721 2 tri 1327 1333 1349
2722 2 tri 1367 1342 1348
2723 2 tri 1369 1359 1342
2724 2 tri 1342 1367 1369
2725 2 tri 1348 1376 1367
2726 2 tri 1286 1294 1321
2727 2 tri 1300 1329 1294
2728 2 tri 1342 1321 1348
2729 2 tri 1286 1283 1257
2730 2 tri 1279 1296 1308
2731 2 tri 1387 1376 1357
2732 2 tri 1187 1230 1219
2733 2 tri 1266 1294 1259
2734 2 tri 1222 1188 1177
2735 2 tri 1230 1266 1259
2736 2 tri 1238 1209 1246
2737 2 tri 1300 1294 1266
2738 2 tri 1222 1228 1257
2739 2 tri 1219 1230 1259
2740 2 tri 1251 1257 1283
2741 2 tri 1228 1259 1257
2742 2 tri 1312 1286 1321
2743 2 tri 1257 1259 1286
2744 2 tri 1149 1136 1177
2745 2 tri 1142 1101 1104
2746 2 tri 1228 1222 1194
2747 2 tri 1251 1220 1222
2748 2 tri 1147 1136 1102
2749 2 tri 1177 1188 1149
2750 2 tri 1177 1147 1194
2751 2 tri 1102 1101 1147
2752 2 tri 1147 1177 1136
2753 2 tri 1194 1222 1177
2754 2 tri 1184 1142 1150
2755 2 tri 1147 1101 1142
2756 2 tri 1109 1151 1150
2757 2 tri 1186 1148 1154
2758 2 tri 1187 1184 1150
2759 2 tri 1228 1194 1184
2760 2 tri 1151 1187 1150
2761 2 tri 1151 1195 1187
2762 2 tri 1118 1168 1151
2763 2 tri 1224 1260 1246
2764 2 tri 1184 1219 1228
2765 2 tri 1184 1187 1219
2766 2 tri 1238 1195 1209
2767 2 tri 1186 1168 1148
2768 2 tri 1230 1238 1266
2769 2 tri 1246 1260 1279
2770 2 tri 1151 1168 1195
2771 2 tri 1118 1108 1148
2772 2 tri 1272 1238 1246
2773 2 tri 1195 1168 1209
2774 2 tri 1266 1238 1272
2775 2 tri 1230 1195 1238
2776 2 tri 1189 1186 1154
2777 2 tri 1168 1118 1148
2778 2 tri 1120 1156 1116
2779 2 tri 1196 1189 1156
2780 2 tri 1120 1167 1156
2781 2 tri 1163 1212 1167
2782 2 tri 1224 1186 1189
2783 2 tri 1209 1168 1186
2784 2 tri 1209 1224 1246
2785 2 tri 1226 1241 1260
2786 2 tri 1189 1226 1224
2787 2 tri 1189 1196 1226
2788 2 tri 1291 1273 1256
2789 2 tri 1291 1326 1305
2790 2 tri 1308 1300 1272
2791 2 tri 1296 1273 1305
2792 2 tri 1296 1279 1260
2793 2 tri 1272 1246 1279
2794 2 tri 1335 1331 1296
2795 2 tri 1370 1387 1357
2796 2 tri 1335 1368 1331
2797 2 tri 1336 1300 1308
2798 2 tri 1329 1336 1357
2799 2 tri 1335 1296 1305
2800 2 tri 1308 1331 1336
2801 2 tri 1368 1393 1403
2802 2 tri 1336 1370 1357
2803 2 tri 1394 1368 1403
2804 2 tri 1336 1331 1360
2805 2 tri 1308 1296 1331
2806 2 tri 1326 1335 1305
2807 2 tri 1362 1368 1335
2808 2 tri 1331 1368 1360
2809 2 tri 1460 1432 1446
2810 2 tri 1362 1393 1368
2811 2 tri 1362 1354 1391
2812 2 tri 1432 1403 1393
2813 2 tri 1393 1416 1432
2814 2 tri 1399 1394 1421
2815 2 tri 1370 1360 1394
2816 2 tri 1387 1399 1415
2817 2 tri 1370 1394 1399
2818 2 tri 1471 1447 1449
2819 2 tri 1394 1403 1431
2820 2 tri 1457 1449 1431
2821 2 tri 1421 1394 1431
2822 2 tri 1432 1457 1431
2823 2 tri 1425 1415 1399
2824 2 tri 1476 1460 1446
2825 2 tri 1431 1403 1432
2826 2 tri 1485 1457 1460
2827 2 tri 1494 1483 1471
2828 2 tri 1485 1460 1476
2829 2 tri 1457 1432 1460
2830 2 tri 1498 1500 1476
2831 2 tri 1488 1473 1457
2832 2 tri 1476 1500 1485
2833 2 tri 1498 1527 1520
2834 2 tri 1500 1517 1485
2835 2 tri 415 1578 1567
2836 2 tri 1520 1547 1542
2837 2 tri 1542 1534 1517
2838 2 tri 1517 1534 1507
2839 2 tri 1557 1575 400
2840 2 tri 1473 1494 1471
2841 2 tri 1505 1521 1510
2842 2 tri 1473 1488 1494
2843 2 tri 1507 1534 1524
2844 2 tri 1505 1524 1521
2845 2 tri 1505 1507 1524
2846 2 tri 1473 1471 1449
2847 2 tri 1483 1487 1467
2848 2 tri 1457 1473 1449
2849 2 tri 1457 1485 1488
2850 2 tri 1507 1488 1485
2851 2 tri 1507 1505 1488
2852 2 tri 461 1462 454
2853 2 tri 1483 1501 1487
2854 2 tri 1494 1510 1483
2855 2 tri 1510 1521 428
2856 2 tri 1483 1510 1501
2857 2 tri 1494 1505 1510
2858 2 tri 1501 436 442
2859 2 tri 1501 1510 436
2860 2 tri 436 428 1544
2861 2 tri 436 1510 428
2862 2 tri 1491 1506 1479
2863 2 tri 1493 1477 1468
2864 2 tri 1525 1515 1502
2865 2 tri 1535 1563 1569
2866 2 tri 442 1528 1513
2867 2 tri 436 1544 1528
2868 2 tri 1468 1479 1493
2869 2 tri 469 461 1479
2870 2 tri 1515 1491 1502
2871 2 tri 1515 1506 1491
2872 2 tri 1462 1474 454
2873 2 tri 1487 442 446
2874 2 tri 446 454 1474
2875 2 tri 1441 1435 1420
2876 2 tri 446 1474 1487
2877 2 tri 1443 1415 1425
2878 2 tri 1449 1447 1421
2879 2 tri 1467 1487 1474
2880 2 tri 1462 1453 1474
2881 2 tri 1441 1450 1435
2882 2 tri 1443 1467 1453
2883 2 tri 1471 1483 1467
2884 2 tri 1421 1425 1399
2885 2 tri 1447 1443 1425
2886 2 tri 1462 1441 1453
2887 2 tri 1405 1415 1429
2888 2 tri 1467 1443 1447
2889 2 tri 1453 1429 1443
2890 2 tri 1395 1420 1414
2891 2 tri 1405 1429 1420
2892 2 tri 1420 1435 1414
2893 2 tri 1450 469 1435
2894 2 tri 1453 1441 1429
2895 2 tri 1462 1450 1441
2896 2 tri 1349 1377 1366
2897 2 tri 1359 1385 1377
2898 2 tri 486 1398 1408
2899 2 tri 1377 1385 1398
2900 2 tri 1408 1406 1426
2901 2 tri 1385 1389 1406
2902 2 tri 486 490 1398
2903 2 tri 1398 1385 1408
2904 2 tri 469 474 1435
2905 2 tri 479 1408 1426
2906 2 tri 1410 490 1424
2907 2 tri 1384 1398 490
2908 2 tri 1439 1427 1410
2909 2 tri 1397 1379 509
2910 2 tri 1440 486 479
2911 2 tri 1424 490 486
2912 2 tri 1346 1371 1358
2913 2 tri 1366 1384 1371
2914 2 tri 1410 499 490
2915 2 tri 1366 1377 1384
2916 2 tri 1401 499 1410
2917 2 tri 1371 1384 499
2918 2 tri 1355 1379 1365
2919 2 tri 509 505 1401
2920 2 tri 1419 1397 1401
2921 2 tri 509 1358 505
2922 2 tri 1365 1388 1378
2923 2 tri 1388 1397 1409
2924 2 tri 1356 1390 1372
2925 2 tri 1378 1388 1404
2926 2 tri 1438 1434 1409
2927 2 tri 1390 1378 1404
2928 2 tri 1434 1404 1409
2929 2 tri 1404 1388 1409
2930 2 tri 1448 1423 1456
2931 2 tri 1413 1390 1423
2932 2 tri 1401 1397 509
2933 2 tri 1419 1409 1397
2934 2 tri 499 1401 505
2935 2 tri 1410 1427 1401
2936 2 tri 1445 1427 1458
2937 2 tri 1419 1401 1427
2938 2 tri 1465 1438 1445
2939 2 tri 1434 1423 1404
2940 2 tri 1484 1465 1458
2941 2 tri 1438 1419 1445
2942 2 tri 1464 1434 1438
2943 2 tri 1456 1423 1434
2944 2 tri 1489 1448 1456
2945 2 tri 1484 1492 1465
2946 2 tri 1456 1434 1464
2947 2 tri 1456 1495 1489
2948 2 tri 1492 1518 1522
2949 2 tri 1601 1566 1554
2950 2 tri 1532 1495 1522
2951 2 tri 1495 1532 1489
2952 2 tri 1438 1465 1464
2953 2 tri 1445 1458 1465
2954 2 tri 1464 1492 1495
2955 2 tri 1464 1465 1492
2956 2 tri 1606 1565 1581
2957 2 tri 1518 1484 1511
2958 2 tri 1535 1549 1519
2959 2 tri 1511 1481 1508
2960 2 tri 1504 1533 1508
2961 2 tri 1644 1614 1634
2962 2 tri 1440 1439 1424
2963 2 tri 1459 1458 1439
2964 2 tri 486 1440 1424
2965 2 tri 479 474 1452
2966 2 tri 1440 1459 1439
2967 2 tri 1482 1481 1459
2968 2 tri 1468 474 469
2969 2 tri 479 1426 474
2970 2 tri 1461 1452 1477
2971 2 tri 1440 479 1452
2972 2 tri 1482 1461 1477
2973 2 tri 1459 1440 1461
2974 2 tri 1452 1468 1477
2975 2 tri 1452 474 1468
2976 2 tri 1519 1493 1506
2977 2 tri 1519 1504 1493
2978 2 tri 1533 1504 1519
2979 2 tri 1508 1482 1504
2980 2 tri 1544 1538 1528
2981 2 tri 1551 1563 1539
2982 2 tri 1544 1564 1556
2983 2 tri 1553 428 423
2984 2 tri 1576 1584 1605
2985 2 tri 1556 1564 1584
2986 2 tri 1654 1627 1648
2987 2 tri 1621 1591 1603
2988 2 tri 1658 1628 1654
2989 2 tri 1619 1590 1605
2990 2 tri 1634 1596 1619
2991 2 tri 1563 1551 1576
2992 2 tri 1632 1605 1628
2993 2 tri 1590 1576 1605
2994 2 tri 1525 1539 1515
2995 2 tri 1525 1538 1551
2996 2 tri 1556 1551 1538
2997 2 tri 1556 1584 1576
2998 2 tri 1563 1576 1590
2999 2 tri 1551 1556 1576
3000 2 tri 1549 1535 1569
3001 2 tri 1519 1506 1535
3002 2 tri 1519 1549 1533
3003 2 tri 1581 1614 1606
3004 2 tri 1508 1541 1511
3005 2 tri 1533 1549 1565
3006 2 tri 1518 1548 1554
3007 2 tri 1541 1565 1577
3008 2 tri 1533 1565 1541
3009 2 tri 1549 1569 1581
3010 2 tri 1522 1566 1532
3011 2 tri 1585 1577 1616
3012 2 tri 1548 1541 1577
3013 2 tri 1554 1585 1601
3014 2 tri 1554 1548 1585
3015 2 tri 1549 1581 1565
3016 2 tri 1569 1596 1581
3017 2 tri 1619 1596 1590
3018 2 tri 1614 1581 1596
3019 2 tri 1577 1606 1616
3020 2 tri 1577 1565 1606
3021 2 tri 1644 1634 1669
3022 2 tri 1614 1596 1634
3023 2 tri 1645 1644 1678
3024 2 tri 1606 1614 1644
3025 2 tri 1616 1642 1601
3026 2 tri 1705 1684 1678
3027 2 tri 1616 1606 1645
3028 2 tri 1684 1661 1645
3029 2 tri 1642 1616 1661
3030 2 tri 1678 1726 1705
3031 2 tri 1706 1694 1732
3032 2 tri 1745 1706 1732
3033 2 tri 1657 1634 1619
3034 2 tri 1678 1706 1726
3035 2 tri 1678 1669 1706
3036 2 tri 1732 1764 1745
3037 2 tri 1778 1754 1784
3038 2 tri 1764 1732 1754
3039 2 tri 1754 1778 1764
3040 2 tri 1694 1657 1689
3041 2 tri 1619 1605 1632
3042 2 tri 1658 1657 1632
3043 2 tri 1694 1669 1657
3044 2 tri 1732 1720 1754
3045 2 tri 1732 1694 1720
3046 2 tri 1658 1654 1683
3047 2 tri 1628 1627 1654
3048 2 tri 1657 1658 1689
3049 2 tri 1632 1628 1658
3050 2 tri 1648 1679 1654
3051 2 tri 1712 1738 1710
3052 2 tri 1712 1710 1683
3053 2 tri 1738 1720 1710
3054 2 tri 1785 1797 1775
3055 2 tri 1784 1754 1766
3056 2 tri 1766 1794 1784
3057 2 tri 1721 1744 1712
3058 2 tri 1766 1738 1744
3059 2 tri 1770 1785 1775
3060 2 tri 1794 1766 1775
3061 2 tri 1770 1753 1750
3062 2 tri 1775 1744 1753
3063 2 tri 1753 1770 1775
3064 2 tri 1793 1802 1803
3065 2 tri 1775 1797 1794
3066 2 tri 1646 1667 1653
3067 2 tri 1721 1753 1744
3068 2 tri 1691 1681 1709
3069 2 tri 1729 1753 1721
3070 2 tri 1679 1693 1712
3071 2 tri 1729 1750 1753
3072 2 tri 1621 1640 1648
3073 2 tri 1676 1703 1693
3074 2 tri 1654 1679 1683
3075 2 tri 1665 1676 1693
3076 2 tri 1665 1693 1679
3077 2 tri 1703 1721 1693
3078 2 tri 1604 1608 1627
3079 2 tri 1604 1582 1608
3080 2 tri 1627 1621 1648
3081 2 tri 1608 1591 1621
3082 2 tri 1567 1553 423
3083 2 tri 428 1521 423
3084 2 tri 428 1553 1544
3085 2 tri 423 415 1567
3086 2 tri 1591 1567 1578
3087 2 tri 1591 1582 1567
3088 2 tri 1521 1537 423
3089 2 tri 1524 1534 1550
3090 2 tri 415 1550 408
3091 2 tri 1537 1524 1550
3092 2 tri 1537 415 423
3093 2 tri 1537 1550 415
3094 2 tri 415 408 1578
3095 2 tri 1586 1560 1570
3096 2 tri 1653 1640 1630
3097 2 tri 1621 1603 1617
3098 2 tri 1630 1640 1617
3099 2 tri 1665 1648 1640
3100 2 tri 1586 394 1575
3101 2 tri 1620 1646 1630
3102 2 tri 1617 1610 1630
3103 2 tri 1617 1592 1610
3104 2 tri 1550 1557 408
3105 2 tri 1550 1534 1557
3106 2 tri 1610 400 394
3107 2 tri 1557 1560 1575
3108 2 tri 1557 400 408
3109 2 tri 1575 394 400
3110 2 tri 1557 1542 1560
3111 2 tri 1517 1500 1520
3112 2 tri 1560 1586 1575
3113 2 tri 1597 381 388
3114 2 tri 1586 388 394
3115 2 tri 388 1633 1620
3116 2 tri 1610 1620 1630
3117 2 tri 388 381 1633
3118 2 tri 375 1647 381
3119 2 tri 381 1647 1633
3120 2 tri 1633 1660 1646
3121 2 tri 1664 1670 1690
3122 2 tri 1664 1681 1660
3123 2 tri 1709 1715 1691
3124 2 tri 1690 1709 1681
3125 2 tri 1734 1750 1729
3126 2 tri 1660 1667 1646
3127 2 tri 1660 1681 1667
3128 2 tri 1676 1691 1703
3129 2 tri 1667 1681 1691
3130 2 tri 1734 1715 1709
3131 2 tri 1734 1729 1715
3132 2 tri 1703 1729 1721
3133 2 tri 1703 1715 1729
3134 2 tri 1762 1770 1750
3135 2 tri 1762 1786 1770
3136 2 tri 1785 1799 1797
3137 2 tri 1717 1737 1709
3138 2 tri 1752 1731 1749
3139 2 tri 1781 1762 1759
3140 2 tri 1750 1734 1762
3141 2 tri 1801 1786 1781
3142 2 tri 1799 1785 1786
3143 2 tri 1786 1801 1799
3144 2 tri 1793 1803 1801
3145 2 tri 1734 1737 1762
3146 2 tri 1735 1731 1752
3147 2 tri 1768 1773 1752
3148 2 tri 1735 1717 1714
3149 2 tri 1801 1781 1793
3150 2 tri 1786 1762 1781
3151 2 tri 1707 1713 1730
3152 2 tri 1779 1792 1788
3153 2 tri 1768 1752 1749
3154 2 tri 1759 1737 1735
3155 2 tri 1743 1761 1749
3156 2 tri 1788 1793 1773
3157 2 tri 1759 1773 1781
3158 2 tri 1759 1752 1773
3159 2 tri 1768 1788 1773
3160 2 tri 1792 1802 1788
3161 2 tri 1749 1761 1768
3162 2 tri 1774 1790 1779
3163 2 tri 1792 1800 1802
3164 2 tri 1792 1790 1800
3165 2 tri 1796 1783 1789
3166 2 tri 1790 1792 1779
3167 2 tri 1798 1790 1783
3168 2 tri 1798 1800 1790
3169 2 tri 1783 1796 1798
3170 2 tri 1740 307 1728
3171 2 tri 1758 1747 313
3172 2 tri 1763 1776 1758
3173 2 tri 1783 1774 1769
3174 2 tri 301 1772 1763
3175 2 tri 1789 1783 1776
3176 2 tri 1747 1757 1736
3177 2 tri 1761 1779 1768
3178 2 tri 1779 1761 1774
3179 2 tri 1743 1736 1757
3180 2 tri 1757 1761 1743
3181 2 tri 1757 1774 1761
3182 2 tri 341 1713 1707
3183 2 tri 1687 1677 1698
3184 2 tri 341 1687 334
3185 2 tri 1736 1743 1723
3186 2 tri 1719 319 1708
3187 2 tri 1736 1723 327
3188 2 tri 1688 1697 1708
3189 2 tri 1728 313 1719
3190 2 tri 1708 319 327
3191 2 tri 1719 313 319
3192 2 tri 1688 1677 1659
3193 2 tri 334 327 1723
3194 2 tri 1655 1675 1651
3195 2 tri 1708 1698 1688
3196 2 tri 1688 1698 1677
3197 2 tri 1708 327 1698
3198 2 tri 1662 1674 1650
3199 2 tri 1687 341 1674
3200 2 tri 1674 341 348
3201 2 tri 1687 1698 334
3202 2 tri 341 334 1713
3203 2 tri 1698 327 334
3204 2 tri 1650 1663 1643
3205 2 tri 1674 348 1663
3206 2 tri 366 358 1670
3207 2 tri 1663 348 353
3208 2 tri 341 1707 348
3209 2 tri 1714 1717 1695
3210 2 tri 1714 1707 1731
3211 2 tri 1692 348 1707
3212 2 tri 1707 1730 1731
3213 2 tri 1713 1723 1730
3214 2 tri 1670 1695 1690
3215 2 tri 1692 1707 1714
3216 2 tri 1735 1714 1731
3217 2 tri 1695 1692 1714
3218 2 tri 1759 1735 1752
3219 2 tri 1737 1717 1735
3220 2 tri 1647 375 366
3221 2 tri 1680 1695 1670
3222 2 tri 358 1680 1670
3223 2 tri 353 1692 1680
3224 2 tri 1664 1690 1681
3225 2 tri 1695 1717 1690
3226 2 tri 366 375 1623
3227 2 tri 366 1664 1647
3228 2 tri 1660 1647 1664
3229 2 tri 1660 1633 1647
3230 2 tri 1612 1599 1623
3231 2 tri 1649 1663 353
3232 2 tri 358 366 1635
3233 2 tri 1670 1664 366
3234 2 tri 1649 358 1635
3235 2 tri 353 1680 358
3236 2 tri 1572 1588 1599
3237 2 tri 1562 1546 1574
3238 2 tri 1572 1599 1587
3239 2 tri 1623 1635 366
3240 2 tri 1588 1615 1599
3241 2 tri 1588 1574 1600
3242 2 tri 1586 1597 388
3243 2 tri 1587 1599 1612
3244 2 tri 1597 1612 381
3245 2 tri 1599 1615 1623
3246 2 tri 1612 1623 375
3247 2 tri 1615 1635 1623
3248 2 tri 1542 1547 1560
3249 2 tri 1572 1562 1588
3250 2 tri 1547 1570 1560
3251 2 tri 1547 1527 1552
3252 2 tri 1391 1416 1393
3253 2 tri 1446 1432 1416
3254 2 tri 1416 1433 1446
3255 2 tri 1480 1509 1498
3256 2 tri 1498 1520 1500
3257 2 tri 1527 1547 1520
3258 2 tri 1375 1391 1354
3259 2 tri 1433 1466 1446
3260 2 tri 1375 1411 1391
3261 2 tri 1451 1466 1433
3262 2 tri 1411 1451 1433
3263 2 tri 1442 1470 1478
3264 2 tri 1451 1480 1466
3265 2 tri 1478 1499 1512
3266 2 tri 1547 1552 1570
3267 2 tri 1527 1536 1552
3268 2 tri 1570 1572 1587
3269 2 tri 1552 1562 1572
3270 2 tri 1529 1512 1499
3271 2 tri 1546 1536 1512
3272 2 tri 1579 1613 1589
3273 2 tri 1600 1615 1588
3274 2 tri 1339 1375 1354
3275 2 tri 1375 1400 1411
3276 2 tri 1391 1411 1433
3277 2 tri 1375 1363 1400
3278 2 tri 1451 1478 1480
3279 2 tri 1451 1442 1478
3280 2 tri 1411 1400 1442
3281 2 tri 1363 1386 1400
3282 2 tri 1470 1430 1463
3283 2 tri 1442 1400 1430
3284 2 tri 1499 1470 1503
3285 2 tri 1499 1478 1470
3286 2 tri 1545 1529 1503
3287 2 tri 1559 1546 1529
3288 2 tri 1571 1543 1583
3289 2 tri 1579 1559 1545
3290 2 tri 1530 1558 1568
3291 2 tri 1622 1626 1643
3292 2 tri 1595 1611 1579
3293 2 tri 1624 1651 1631
3294 2 tri 1611 1613 1579
3295 2 tri 1639 1631 1659
3296 2 tri 1559 1589 1574
3297 2 tri 1559 1579 1589
3298 2 tri 1589 1609 1574
3299 2 tri 1609 1626 1622
3300 2 tri 1574 1609 1600
3301 2 tri 1589 1613 1609
3302 2 tri 1649 1622 1643
3303 2 tri 1615 1600 1622
3304 2 tri 1622 1649 1635
3305 2 tri 1643 1663 1649
3306 2 tri 1659 1662 1639
3307 2 tri 1677 1687 1662
3308 2 tri 1611 1631 1613
3309 2 tri 1611 1624 1631
3310 2 tri 1650 1639 1662
3311 2 tri 1626 1613 1639
3312 2 tri 1675 1659 1651
3313 2 tri 1677 1662 1659
3314 2 tri 1625 1593 1607
3315 2 tri 1625 1624 1593
3316 2 tri 1568 1558 1593
3317 2 tri 1593 1624 1595
3318 2 tri 1516 1555 1514
3319 2 tri 1543 1571 1526
3320 2 tri 1618 1607 1583
3321 2 tri 1618 1637 1607
3322 2 tri 1638 1652 1618
3323 2 tri 1751 1741 1760
3324 2 tri 1470 1463 1503
3325 2 tri 1571 1583 1607
3326 2 tri 1496 1454 1490
3327 2 tri 1514 1555 1543
3328 2 tri 1593 1571 1607
3329 2 tri 1558 1530 1526
3330 2 tri 1463 1496 1503
3331 2 tri 1526 1571 1558
3332 2 tri 1593 1558 1571
3333 2 tri 1593 1595 1568
3334 2 tri 1545 1568 1579
3335 2 tri 1545 1530 1568
3336 2 tri 1530 1503 1496
3337 2 tri 1418 1386 1374
3338 2 tri 1530 1496 1526
3339 2 tri 1373 1374 1340
3340 2 tri 1341 1373 1340
3341 2 tri 1418 1430 1386
3342 2 tri 1463 1418 1454
3343 2 tri 1463 1430 1418
3344 2 tri 1444 1454 1407
3345 2 tri 1496 1463 1454
3346 2 tri 1396 1402 1364
3347 2 tri 1407 1418 1374
3348 2 tri 1364 1402 1373
3349 2 tri 1436 1422 1472
3350 2 tri 1402 1407 1373
3351 2 tri 1454 1418 1407
3352 2 tri 1396 1436 1402
3353 2 tri 1514 1543 1490
3354 2 tri 1496 1490 1526
3355 2 tri 1475 1472 1516
3356 2 tri 1444 1475 1490
3357 2 tri 1602 1561 1573
3358 2 tri 1486 1437 1455
3359 2 tri 1472 1422 1437
3360 2 tri 1490 1475 1514
3361 2 tri 1444 1402 1436
3362 2 tri 1343 1380 1396
3363 2 tri 1351 1392 1380
3364 2 tri 1345 1382 1350
3365 2 tri 1417 1392 1381
3366 2 tri 1444 1436 1475
3367 2 tri 1396 1422 1436
3368 2 tri 1350 1382 1381
3369 2 tri 1383 1412 1428
3370 2 tri 1455 1417 1428
3371 2 tri 1437 1392 1417
3372 2 tri 1469 1428 1412
3373 2 tri 1469 1455 1428
3374 2 tri 1486 1455 1497
3375 2 tri 1437 1417 1455
3376 2 tri 1497 1469 1531
3377 2 tri 1497 1455 1469
3378 2 tri 1540 1486 1497
3379 2 tri 1523 1516 1472
3380 2 tri 1580 1540 1531
3381 2 tri 1573 1523 1540
3382 2 tri 1475 1516 1514
3383 2 tri 1472 1486 1523
3384 2 tri 1540 1523 1486
3385 2 tri 1573 1561 1523
3386 2 tri 1543 1555 1583
3387 2 tri 1636 1602 1629
3388 2 tri 1516 1561 1555
3389 2 tri 1516 1523 1561
3390 2 tri 1618 1598 1638
3391 2 tri 1555 1561 1598
3392 2 tri 1666 1636 1629
3393 2 tri 1666 1671 1636
3394 2 tri 1594 1580 1641
3395 2 tri 1629 1594 1641
3396 2 tri 1573 1540 1594
3397 2 tri 1629 1602 1573
3398 2 tri 1636 1598 1602
3399 2 tri 1700 1671 1666
3400 2 tri 1700 1702 1671
3401 2 tri 1700 1666 1701
3402 2 tri 1673 1701 1666
3403 2 tri 1727 1755 1748
3404 2 tri 1700 1701 1725
3405 2 tri 1722 1702 1727
3406 2 tri 1685 1699 1716
3407 2 tri 1672 1671 1702
3408 2 tri 1672 1702 1699
3409 2 tri 1700 1725 1727
3410 2 tri 1696 1668 1685
3411 2 tri 1699 1722 1716
3412 2 tri 1618 1652 1637
3413 2 tri 1638 1671 1672
3414 2 tri 1685 1672 1699
3415 2 tri 1652 1638 1672
3416 2 tri 1704 1711 1686
3417 2 tri 1668 1652 1685
3418 2 tri 1656 1668 1682
3419 2 tri 1637 1652 1668
3420 2 tri 1719 1697 1711
3421 2 tri 1686 1656 1682
3422 2 tri 1625 1656 1655
3423 2 tri 1637 1668 1656
3424 2 tri 1659 1675 1688
3425 2 tri 1655 1656 1686
3426 2 tri 1697 1686 1711
3427 2 tri 1675 1655 1686
3428 2 tri 1708 1697 1719
3429 2 tri 1675 1686 1697
3430 2 tri 1719 1711 1728
3431 2 tri 1686 1682 1704
3432 2 tri 1739 1746 1724
3433 2 tri 1718 1733 1739
3434 2 tri 1718 1696 1716
3435 2 tri 1682 1668 1696
3436 2 tri 1696 1704 1682
3437 2 tri 1724 1711 1704
3438 2 tri 1741 1733 1716
3439 2 tri 1724 1704 1718
3440 2 tri 1724 1746 1740
3441 2 tri 1756 295 301
3442 2 tri 1765 295 1756
3443 2 tri 1782 1789 1776
3444 2 tri 1724 1740 1728
3445 2 tri 1740 301 307
3446 2 tri 1728 307 313
3447 2 tri 1740 1746 301
3448 2 tri 1756 301 1746
3449 2 tri 295 1772 301
3450 2 tri 1780 1782 1772
3451 2 tri 1782 1776 1772
3452 2 tri 295 1780 1772
3453 2 tri 1780 1791 1782
3454 2 tri 1789 1795 1796
3455 2 tri 283 1787 1780
3456 2 tri 295 283 1780
3457 2 tri 1782 1791 1795
3458 2 tri 1780 1787 1791
3459 2 tri 1787 283 281
3460 2 tri 1756 1739 1751
3461 2 tri 1765 283 295
3462 2 tri 1765 1771 283
3463 2 tri 1746 1739 1756
3464 2 tri 1718 1716 1733
3465 2 tri 1718 1739 1724
3466 2 tri 1733 1751 1739
3467 2 tri 1741 1751 1733
3468 2 tri 1760 1771 1751
3469 2 tri 1700 1727 1702
3470 2 tri 1742 1755 1727
3471 2 tri 1725 1742 1727
3472 2 tri 1727 1748 1722
3473 2 tri 1755 1767 1748
3474 2 tri 1771 1760 1777
3475 2 tri 283 1771 281
3476 2 tri 1765 1751 1771
3477 2 tri 1771 1777 281
3478 3 tri 2173 2142 2178
3479 3 tri 1979 1998 1981
3480 3 tri 1980 1965 1993
3481 3 tri 1988 2011 1998
3482 3 tri 2383 2370 2381
3483 3 tri 2305 2320 2336
3484 3 tri 2020 2013 1997
3485 3 tri 2247 2249 2268
3486 3 tri 2340 2325 2319
3487 3 tri 1859 1875 1858
3488 3 tri 2187 2201 2212
3489 3 tri 1004 1023 1905
3490 3 tri 2312 2307 2322
3491 3 tri 2155 2178 2142
3492 3 tri 2344 2320 2330
3493 3 tri 1839 1858 1837
3494 3 tri 1852 1837 1858
3495 3 tri 1875 1890 1870
3496 3 tri 1893 1897 1872
3497 3 tri 2076 2051 2062
3498 3 tri 2112 2082 2105
3499 3 tri 2126 2143 2145
3500 3 tri 2124 2141 2117
3501 3 tri 1979 1960 1971
3502 3 tri 2124 2117 2100
3503 3 tri 1988 2003 2011
3504 3 tri 800 2059 2077
3505 3 tri 1913 1907 1891
3506 3 tri 1951 1965 1980
3507 3 tri 2034 2021 2049
3508 3 tri 1807 1816 1806
3509 3 tri 1816 1836 1832
3510 3 tri 2056 2038 2046
3511 3 tri 2268 2290 2286
3512 3 tri 1856 1861 1841
3513 3 tri 2011 2021 1998
3514 3 tri 2103 2089 2073
3515 3 tri 2176 2153 2168
3516 3 tri 2168 2147 2173
3517 3 tri 2153 2130 2132
3518 3 tri 2199 2197 2222
3519 3 tri 2237 2232 2200
3520 3 tri 2266 2244 2247
3521 3 tri 2232 2198 2200
3522 3 tri 2327 2329 2349
3523 3 tri 2251 2249 2224
3524 3 tri 2382 2361 2371
3525 3 tri 2271 2268 2249
3526 3 tri 2374 2371 2352
3527 3 tri 2324 2287 2305
3528 3 tri 2336 2324 2305
3529 3 tri 476 513 2285
3530 3 tri 706 2154 682
3531 3 tri 2163 2177 2148
3532 3 tri 2366 2354 2370
3533 3 tri 2239 2242 2217
3534 3 tri 2161 2148 2177
3535 3 tri 2022 2011 2003
3536 3 tri 2238 2205 2212
3537 3 tri 2103 2142 2123
3538 3 tri 2180 2196 2166
3539 3 tri 2248 2231 2241
3540 3 tri 2300 2310 2292
3541 3 tri 1916 1912 1896
3542 3 tri 2217 2242 2234
3543 3 tri 2225 2231 2248
3544 3 tri 2246 2275 2269
3545 3 tri 2293 2308 2320
3546 3 tri 2338 2351 2332
3547 3 tri 2108 2116 2091
3548 3 tri 1848 1834 1852
3549 3 tri 1870 1858 1875
3550 3 tri 1875 1896 1890
3551 3 tri 1977 1956 1987
3552 3 tri 1887 1880 1865
3553 3 tri 1942 1916 1920
3554 3 tri 1890 1912 1910
3555 3 tri 1875 1859 1877
3556 3 tri 2087 2054 2064
3557 3 tri 1976 1986 913
3558 3 tri 1996 1963 1972
3559 3 tri 1990 1977 2008
3560 3 tri 2016 2054 2041
3561 3 tri 1968 1994 2000
3562 3 tri 2140 2118 2152
3563 3 tri 2028 2054 2016
3564 3 tri 2140 2108 2118
3565 3 tri 2069 2048 2060
3566 3 tri 2062 2041 2075
3567 3 tri 2097 2111 751
3568 3 tri 2036 2061 2049
3569 3 tri 1941 961 982
3570 3 tri 1928 1910 1932
3571 3 tri 1947 1941 1926
3572 3 tri 913 2003 1988
3573 3 tri 2005 2024 2019
3574 3 tri 2036 2021 2011
3575 3 tri 1842 1854 1838
3576 3 tri 1971 936 1988
3577 3 tri 1004 982 1931
3578 3 tri 1926 1909 1930
3579 3 tri 2055 2086 2053
3580 3 tri 1919 1940 1925
3581 3 tri 855 2052 2032
3582 3 tri 2125 2117 2141
3583 3 tri 2042 2015 2034
3584 3 tri 1975 1997 1995
3585 3 tri 2125 2098 2117
3586 3 tri 2187 2161 2177
3587 3 tri 2023 2053 2029
3588 3 tri 1805 1814 1813
3589 3 tri 2021 2007 1998
3590 3 tri 1993 1965 1981
3591 3 tri 1945 1929 1931
3592 3 tri 1850 1829 1851
3593 3 tri 1879 1899 1906
3594 3 tri 1884 1911 1881
3595 3 tri 1053 1876 1855
3596 3 tri 1871 1849 1855
3597 3 tri 1842 1838 1823
3598 3 tri 1889 1871 1891
3599 3 tri 1849 1866 1845
3600 3 tri 1889 1866 1871
3601 3 tri 1830 1815 1817
3602 3 tri 1816 1818 1836
3603 3 tri 1869 1866 1889
3604 3 tri 1826 1815 1830
3605 3 tri 1899 1889 1919
3606 3 tri 1821 1843 1840
3607 3 tri 2035 2046 2026
3608 3 tri 1853 1847 1869
3609 3 tri 1922 1935 1952
3610 3 tri 1851 1829 1832
3611 3 tri 1935 1906 1925
3612 3 tri 1938 1933 1918
3613 3 tri 1922 1892 1906
3614 3 tri 1840 1836 1818
3615 3 tri 1893 1903 1917
3616 3 tri 1822 1808 1813
3617 3 tri 1897 1915 1894
3618 3 tri 1934 1938 1915
3619 3 tri 2245 2244 2260
3620 3 tri 2044 2057 2065
3621 3 tri 2095 2109 2113
3622 3 tri 2070 2046 2058
3623 3 tri 2038 2056 2057
3624 3 tri 2093 2110 2090
3625 3 tri 2099 2095 2113
3626 3 tri 1991 2002 2009
3627 3 tri 1967 1983 1974
3628 3 tri 1937 1950 1954
3629 3 tri 2018 2025 2009
3630 3 tri 1939 1911 1922
3631 3 tri 2006 1980 1993
3632 3 tri 1978 1985 2004
3633 3 tri 2058 2043 2067
3634 3 tri 1967 1950 1958
3635 3 tri 2103 2086 2122
3636 3 tri 1985 1982 2010
3637 3 tri 1999 1973 1989
3638 3 tri 2043 2058 2035
3639 3 tri 2093 2104 2114
3640 3 tri 2068 2061 2045
3641 3 tri 2125 2148 2136
3642 3 tri 2100 2117 2098
3643 3 tri 2097 2077 2092
3644 3 tri 2107 2136 2121
3645 3 tri 2148 2161 2136
3646 3 tri 2141 2163 2148
3647 3 tri 2187 2181 2161
3648 3 tri 2191 2213 2178
3649 3 tri 2258 2273 2298
3650 3 tri 2251 2222 2250
3651 3 tri 2199 2222 2224
3652 3 tri 2090 2110 2109
3653 3 tri 2197 2198 2218
3654 3 tri 2132 2168 2153
3655 3 tri 2200 2178 2213
3656 3 tri 2093 2090 2070
3657 3 tri 2109 2095 2090
3658 3 tri 2188 2193 2174
3659 3 tri 2150 2130 2153
3660 3 tri 2266 2268 2286
3661 3 tri 2263 2280 2281
3662 3 tri 2113 2109 2129
3663 3 tri 2186 2164 2170
3664 3 tri 2224 2249 2226
3665 3 tri 2188 2167 2185
3666 3 tri 2250 2222 2218
3667 3 tri 2224 2207 2199
3668 3 tri 2226 2207 2224
3669 3 tri 2206 2209 2188
3670 3 tri 2244 2230 2227
3671 3 tri 2299 2309 2311
3672 3 tri 2280 2299 2295
3673 3 tri 2232 2250 2218
3674 3 tri 2313 2339 2329
3675 3 tri 2339 2325 2347
3676 3 tri 2330 2320 2308
3677 3 tri 2344 2336 2320
3678 3 tri 2360 2374 2352
3679 3 tri 2304 2273 2287
3680 3 tri 2198 2232 2218
3681 3 tri 2237 2252 2273
3682 3 tri 2264 2238 2235
3683 3 tri 2191 2228 2213
3684 3 tri 2284 2264 2256
3685 3 tri 2276 2305 2261
3686 3 tri 2203 2219 2221
3687 3 tri 2338 2328 2341
3688 3 tri 2366 2370 2383
3689 3 tri 2257 2265 2282
3690 3 tri 2383 2391 2392
3691 3 tri 2362 2354 2342
3692 3 tri 2380 2392 2390
3693 3 tri 2389 2378 2387
3694 3 tri 2364 2365 2353
3695 3 tri 2322 2328 2312
3696 3 tri 2365 2362 2351
3697 3 tri 2377 2386 2387
3698 3 tri 266 2356 2367
3699 3 tri 2192 2201 2177
3700 3 tri 2285 2278 2296
3701 3 tri 2318 2302 2312
3702 3 tri 2307 476 435
3703 3 tri 2233 2215 2202
3704 3 tri 2272 2288 2283
3705 3 tri 2270 2279 2292
3706 3 tri 2283 2302 2300
3707 3 tri 2240 2262 2255
3708 3 tri 2262 2283 2279
3709 3 tri 2300 2279 2283
3710 3 tri 2270 2284 2256
3711 3 tri 2120 2124 2102
3712 3 tri 2162 2157 2175
3713 3 tri 2125 2141 2148
3714 3 tri 2138 2120 729
3715 3 tri 2097 773 2077
3716 3 tri 2084 800 773
3717 3 tri 2111 729 751
3718 3 tri 2162 2175 2182
3719 3 tri 2126 2127 2106
3720 3 tri 2192 2182 2202
3721 3 tri 2172 659 682
3722 3 tri 611 633 2208
3723 3 tri 2283 2262 2272
3724 3 tri 2203 2202 2190
3725 3 tri 2253 2236 582
3726 3 tri 2183 2160 2171
3727 3 tri 548 2267 513
3728 3 tri 2216 2231 2204
3729 3 tri 2083 2076 2101
3730 3 tri 2134 2154 706
3731 3 tri 2108 2091 2075
3732 3 tri 2219 611 2236
3733 3 tri 2133 2143 2116
3734 3 tri 2062 2031 2041
3735 3 tri 2017 2050 2037
3736 3 tri 2158 2152 2128
3737 3 tri 2096 2074 2115
3738 3 tri 2179 2194 2158
3739 3 tri 2171 2195 2183
3740 3 tri 2257 2242 2265
3741 3 tri 2282 2289 2306
3742 3 tri 2135 2158 2115
3743 3 tri 2316 391 435
3744 3 tri 2246 2223 2254
3745 3 tri 2282 2306 2296
3746 3 tri 2285 2267 2259
3747 3 tri 2303 2285 2296
3748 3 tri 513 2272 548
3749 3 tri 2303 476 2285
3750 3 tri 2307 2302 2288
3751 3 tri 2355 2358 2363
3752 3 tri 2369 2372 2363
3753 3 tri 2372 2369 2379
3754 3 tri 2346 2337 347
3755 3 tri 435 2303 2316
3756 3 tri 303 347 2343
3757 3 tri 2254 2223 2220
3758 3 tri 2321 2306 2314
3759 3 tri 2331 2343 347
3760 3 tri 1834 1837 1852
3761 3 tri 1859 1858 1839
3762 3 tri 1865 1848 1852
3763 3 tri 1880 1900 1882
3764 3 tri 1852 1858 1870
3765 3 tri 1870 1865 1852
3766 3 tri 1844 1864 1842
3767 3 tri 1910 1904 1887
3768 3 tri 1885 1882 1909
3769 3 tri 1831 1834 1848
3770 3 tri 1842 1864 1854
3771 3 tri 1846 1848 1862
3772 3 tri 1886 1885 1908
3773 3 tri 1831 1846 1828
3774 3 tri 1887 1865 1870
3775 3 tri 1844 1846 1863
3776 3 tri 1831 1848 1846
3777 3 tri 1846 1862 1863
3778 3 tri 1848 1865 1862
3779 3 tri 1865 1880 1862
3780 3 tri 1923 1928 1946
3781 3 tri 1923 1900 1904
3782 3 tri 1885 1863 1882
3783 3 tri 1862 1882 1863
3784 3 tri 1862 1880 1882
3785 3 tri 1900 1909 1882
3786 3 tri 1905 1924 1004
3787 3 tri 1923 1909 1900
3788 3 tri 1908 1885 1909
3789 3 tri 1946 1930 1923
3790 3 tri 1947 1966 1959
3791 3 tri 1880 1904 1900
3792 3 tri 1928 1953 1946
3793 3 tri 1909 1923 1930
3794 3 tri 1904 1928 1923
3795 3 tri 1910 1928 1904
3796 3 tri 1910 1912 1932
3797 3 tri 1956 1932 1936
3798 3 tri 1953 1928 1932
3799 3 tri 1890 1887 1870
3800 3 tri 1904 1880 1887
3801 3 tri 1887 1890 1910
3802 3 tri 1875 1877 1896
3803 3 tri 1896 1912 1890
3804 3 tri 1898 1896 1877
3805 3 tri 1898 1916 1896
3806 3 tri 1920 1916 1898
3807 3 tri 1942 1936 1916
3808 3 tri 1936 1912 1916
3809 3 tri 1963 1936 1942
3810 3 tri 1932 1912 1936
3811 3 tri 1944 1942 1920
3812 3 tri 1963 1956 1936
3813 3 tri 2028 2037 2064
3814 3 tri 1972 1963 1942
3815 3 tri 1977 1953 1956
3816 3 tri 1953 1932 1956
3817 3 tri 1944 1972 1942
3818 3 tri 1987 1956 1963
3819 3 tri 1968 1972 1944
3820 3 tri 1996 2016 1987
3821 3 tri 1972 2000 1996
3822 3 tri 2016 2041 2008
3823 3 tri 2096 2128 2118
3824 3 tri 2017 2037 2000
3825 3 tri 1968 2000 1972
3826 3 tri 1994 2017 2000
3827 3 tri 2115 2158 2128
3828 3 tri 2028 2064 2054
3829 3 tri 2037 2050 2074
3830 3 tri 2075 2041 2054
3831 3 tri 2031 2008 2041
3832 3 tri 2076 2062 2091
3833 3 tri 2051 2031 2062
3834 3 tri 1963 1996 1987
3835 3 tri 2000 2037 2028
3836 3 tri 2016 2008 1987
3837 3 tri 1992 2014 2005
3838 3 tri 1996 2028 2016
3839 3 tri 1996 2000 2028
3840 3 tri 2031 2012 2008
3841 3 tri 2031 2051 2030
3842 3 tri 2024 2014 2039
3843 3 tri 2012 2031 2030
3844 3 tri 2051 2039 2030
3845 3 tri 2019 855 883
3846 3 tri 2069 2060 2083
3847 3 tri 2039 2051 2060
3848 3 tri 2060 2048 2039
3849 3 tri 883 2032 2022
3850 3 tri 2069 2059 2048
3851 3 tri 2077 773 800
3852 3 tri 1992 2005 1984
3853 3 tri 2040 2048 2059
3854 3 tri 2030 2014 2012
3855 3 tri 2030 2039 2014
3856 3 tri 2014 2024 2005
3857 3 tri 2039 2048 2024
3858 3 tri 1969 1984 1966
3859 3 tri 2005 2001 1986
3860 3 tri 1977 1990 1970
3861 3 tri 2012 2014 1992
3862 3 tri 2008 1977 1987
3863 3 tri 2008 2012 1990
3864 3 tri 1992 1990 2012
3865 3 tri 1970 1946 1953
3866 3 tri 1977 1970 1953
3867 3 tri 1949 1930 1946
3868 3 tri 1992 1970 1990
3869 3 tri 1992 1984 1969
3870 3 tri 1970 1969 1946
3871 3 tri 1959 936 961
3872 3 tri 1969 1966 1949
3873 3 tri 1986 2001 913
3874 3 tri 1946 1969 1949
3875 3 tri 1970 1992 1969
3876 3 tri 982 1924 1941
3877 3 tri 1947 1930 1949
3878 3 tri 1908 1926 1924
3879 3 tri 1908 1909 1926
3880 3 tri 1023 1895 1039
3881 3 tri 1914 1023 1004
3882 3 tri 1971 1948 961
3883 3 tri 1004 1924 982
3884 3 tri 1926 1941 1924
3885 3 tri 1926 1930 1947
3886 3 tri 1976 1959 1966
3887 3 tri 961 1941 1959
3888 3 tri 1966 1947 1949
3889 3 tri 1959 1941 1947
3890 3 tri 1959 1976 936
3891 3 tri 1966 1984 1986
3892 3 tri 1966 1986 1976
3893 3 tri 1984 2005 1986
3894 3 tri 2005 2019 2001
3895 3 tri 2024 2048 2040
3896 3 tri 2024 2040 2019
3897 3 tri 2059 827 2040
3898 3 tri 2068 2052 800
3899 3 tri 2052 855 827
3900 3 tri 2040 855 2019
3901 3 tri 2040 827 855
3902 3 tri 2100 2081 2084
3903 3 tri 2045 2032 2052
3904 3 tri 1976 913 936
3905 3 tri 883 855 2032
3906 3 tri 2001 883 913
3907 3 tri 883 2022 2003
3908 3 tri 913 883 2003
3909 3 tri 2001 2019 883
3910 3 tri 1981 1961 1979
3911 3 tri 936 913 1988
3912 3 tri 2045 2022 2032
3913 3 tri 2036 2011 2022
3914 3 tri 2022 2045 2036
3915 3 tri 2068 2084 2081
3916 3 tri 2045 2061 2036
3917 3 tri 2045 2052 2068
3918 3 tri 2071 2049 2061
3919 3 tri 2021 2036 2049
3920 3 tri 2055 2023 2033
3921 3 tri 2015 2007 2034
3922 3 tri 1981 2007 1993
3923 3 tri 1981 1998 2007
3924 3 tri 2021 2034 2007
3925 3 tri 2049 2063 2034
3926 3 tri 961 936 1971
3927 3 tri 1981 1965 1961
3928 3 tri 1960 1979 1961
3929 3 tri 1988 1998 1979
3930 3 tri 1945 1960 1961
3931 3 tri 1948 982 961
3932 3 tri 1979 1971 1988
3933 3 tri 1960 1948 1971
3934 3 tri 1948 1945 1931
3935 3 tri 1940 1965 1951
3936 3 tri 1945 1948 1960
3937 3 tri 1931 982 1948
3938 3 tri 1929 1919 1907
3939 3 tri 1940 1961 1965
3940 3 tri 1891 1895 1913
3941 3 tri 1945 1961 1940
3942 3 tri 1929 1940 1919
3943 3 tri 1929 1945 1940
3944 3 tri 1891 1871 1876
3945 3 tri 1891 1907 1889
3946 3 tri 1919 1889 1907
3947 3 tri 1919 1925 1899
3948 3 tri 1830 1845 1826
3949 3 tri 1866 1847 1845
3950 3 tri 1835 1855 1849
3951 3 tri 1871 1866 1849
3952 3 tri 1871 1855 1876
3953 3 tri 1835 1817 1819
3954 3 tri 1931 1913 1914
3955 3 tri 1891 1876 1895
3956 3 tri 1929 1913 1931
3957 3 tri 1929 1907 1913
3958 3 tri 1931 1914 1004
3959 3 tri 1913 1895 1914
3960 3 tri 1908 1905 1886
3961 3 tri 1895 1876 1039
3962 3 tri 1905 1023 1888
3963 3 tri 1914 1895 1023
3964 3 tri 1868 1864 1886
3965 3 tri 1864 1885 1886
3966 3 tri 1886 1905 1888
3967 3 tri 1908 1924 1905
3968 3 tri 1885 1864 1863
3969 3 tri 1886 1888 1868
3970 3 tri 1039 1053 1868
3971 3 tri 1854 1864 1868
3972 3 tri 1888 1039 1868
3973 3 tri 1053 1062 1854
3974 3 tri 1062 1053 1855
3975 3 tri 1854 1868 1053
3976 3 tri 1023 1039 1888
3977 3 tri 1876 1053 1039
3978 3 tri 1844 1863 1864
3979 3 tri 1846 1844 1828
3980 3 tri 1842 1823 1824
3981 3 tri 1824 1844 1842
3982 3 tri 1824 1828 1844
3983 3 tri 1820 1823 1838
3984 3 tri 1062 1855 1835
3985 3 tri 1820 1838 1062
3986 3 tri 1830 1835 1849
3987 3 tri 1819 1820 1062
3988 3 tri 1819 1062 1835
3989 3 tri 1838 1854 1062
3990 3 tri 1812 1826 1827
3991 3 tri 1835 1830 1817
3992 3 tri 1849 1845 1830
3993 3 tri 1825 1843 1821
3994 3 tri 1810 1811 1825
3995 3 tri 1826 1812 1815
3996 3 tri 1847 1826 1845
3997 3 tri 1827 1811 1812
3998 3 tri 1879 1853 1869
3999 3 tri 1827 1826 1847
4000 3 tri 1879 1869 1899
4001 3 tri 1847 1866 1869
4002 3 tri 1906 1899 1925
4003 3 tri 1869 1889 1899
4004 3 tri 1884 1867 1892
4005 3 tri 1853 1825 1827
4006 3 tri 1935 1922 1906
4007 3 tri 1892 1879 1906
4008 3 tri 1853 1827 1847
4009 3 tri 1825 1811 1827
4010 3 tri 1867 1843 1853
4011 3 tri 1860 1836 1840
4012 3 tri 1867 1853 1879
4013 3 tri 1843 1825 1853
4014 3 tri 1809 1821 1818
4015 3 tri 1843 1860 1840
4016 3 tri 1892 1867 1879
4017 3 tri 1860 1843 1867
4018 3 tri 1867 1884 1860
4019 3 tri 1892 1922 1911
4020 3 tri 1957 1927 1939
4021 3 tri 1911 1884 1892
4022 3 tri 1860 1881 1857
4023 3 tri 1860 1884 1881
4024 3 tri 1952 1939 1922
4025 3 tri 1903 1881 1911
4026 3 tri 1851 1832 1857
4027 3 tri 1893 1874 1881
4028 3 tri 1836 1857 1832
4029 3 tri 1836 1860 1857
4030 3 tri 1809 1818 1807
4031 3 tri 1814 1816 1832
4032 3 tri 1807 1818 1816
4033 3 tri 1821 1809 1810
4034 3 tri 1825 1821 1810
4035 3 tri 1840 1818 1821
4036 3 tri 1816 1814 1806
4037 3 tri 1813 1804 1805
4038 3 tri 1813 1814 1829
4039 3 tri 1805 1806 1814
4040 3 tri 1822 1813 1833
4041 3 tri 1814 1832 1829
4042 3 tri 1881 1874 1857
4043 3 tri 1850 1833 1829
4044 3 tri 1833 1813 1829
4045 3 tri 1808 1804 1813
4046 3 tri 1872 1850 1851
4047 3 tri 1883 1878 1901
4048 3 tri 1850 1856 1833
4049 3 tri 1833 1841 1822
4050 3 tri 1856 1841 1833
4051 3 tri 1873 1878 1856
4052 3 tri 1883 1901 1902
4053 3 tri 1878 1894 1901
4054 3 tri 1861 1878 1883
4055 3 tri 1901 1918 1902
4056 3 tri 1934 1955 1938
4057 3 tri 1901 1894 1915
4058 3 tri 1902 1918 1921
4059 3 tri 1901 1915 1918
4060 3 tri 1856 1878 1861
4061 3 tri 1873 1850 1872
4062 3 tri 1878 1873 1894
4063 3 tri 1893 1881 1903
4064 3 tri 1850 1873 1856
4065 3 tri 1872 1897 1873
4066 3 tri 1851 1874 1872
4067 3 tri 1851 1857 1874
4068 3 tri 1897 1893 1917
4069 3 tri 1872 1874 1893
4070 3 tri 1915 1897 1917
4071 3 tri 1894 1873 1897
4072 3 tri 1921 1918 1933
4073 3 tri 1975 1967 1958
4074 3 tri 1938 1918 1915
4075 3 tri 2002 1983 1995
4076 3 tri 1954 1950 1967
4077 3 tri 1974 1983 1991
4078 3 tri 1967 1975 1983
4079 3 tri 1983 2002 1991
4080 3 tri 1954 1967 1974
4081 3 tri 2009 2002 2018
4082 3 tri 2025 2018 2038
4083 3 tri 2026 2018 2002
4084 3 tri 2026 2038 2018
4085 3 tri 2038 2026 2046
4086 3 tri 2002 1995 2013
4087 3 tri 2070 2056 2046
4088 3 tri 2044 2025 2038
4089 3 tri 2090 2072 2070
4090 3 tri 2078 2095 2080
4091 3 tri 2038 2057 2044
4092 3 tri 2078 2090 2095
4093 3 tri 2046 2035 2058
4094 3 tri 2013 1995 1997
4095 3 tri 1997 2004 2020
4096 3 tri 2027 2047 2043
4097 3 tri 2029 2027 2010
4098 3 tri 2020 2035 2013
4099 3 tri 2086 2073 2053
4100 3 tri 2067 2043 2047
4101 3 tri 1982 1985 1964
4102 3 tri 2004 1997 1978
4103 3 tri 2010 2004 1985
4104 3 tri 2027 2043 2020
4105 3 tri 2026 2013 2035
4106 3 tri 2026 2002 2013
4107 3 tri 2027 2020 2004
4108 3 tri 2043 2035 2020
4109 3 tri 1997 1975 1978
4110 3 tri 1950 1933 1938
4111 3 tri 1983 1975 1995
4112 3 tri 1958 1955 1978
4113 3 tri 1937 1933 1950
4114 3 tri 1937 1921 1933
4115 3 tri 1917 1934 1915
4116 3 tri 1958 1950 1938
4117 3 tri 1903 1927 1917
4118 3 tri 1943 1955 1934
4119 3 tri 1917 1943 1934
4120 3 tri 1964 1985 1978
4121 3 tri 1938 1955 1958
4122 3 tri 1943 1964 1955
4123 3 tri 1957 1964 1943
4124 3 tri 1957 1982 1964
4125 3 tri 1958 1978 1975
4126 3 tri 1955 1964 1978
4127 3 tri 1927 1957 1943
4128 3 tri 1980 1962 1951
4129 3 tri 1939 1973 1957
4130 3 tri 2010 2027 2004
4131 3 tri 1917 1927 1943
4132 3 tri 1903 1911 1927
4133 3 tri 1973 1939 1952
4134 3 tri 1927 1911 1939
4135 3 tri 1951 1935 1925
4136 3 tri 1962 1952 1935
4137 3 tri 1935 1951 1962
4138 3 tri 1925 1940 1951
4139 3 tri 1957 1973 1982
4140 3 tri 1952 1962 1989
4141 3 tri 2015 2006 1993
4142 3 tri 1989 1962 1980
4143 3 tri 2023 1989 2006
4144 3 tri 1973 1952 1989
4145 3 tri 1980 2006 1989
4146 3 tri 2082 2055 2066
4147 3 tri 2007 2015 1993
4148 3 tri 2066 2063 2088
4149 3 tri 2047 2027 2029
4150 3 tri 1982 1973 1999
4151 3 tri 1999 2010 1982
4152 3 tri 2029 2053 2047
4153 3 tri 1989 2023 1999
4154 3 tri 2006 2015 2033
4155 3 tri 1999 2029 2010
4156 3 tri 1999 2023 2029
4157 3 tri 2066 2055 2033
4158 3 tri 2023 2006 2033
4159 3 tri 2015 2042 2033
4160 3 tri 2034 2063 2042
4161 3 tri 2023 2055 2053
4162 3 tri 2033 2042 2066
4163 3 tri 2063 2066 2042
4164 3 tri 2082 2086 2055
4165 3 tri 2063 2085 2088
4166 3 tri 2063 2049 2071
4167 3 tri 2067 2073 2089
4168 3 tri 2047 2053 2073
4169 3 tri 2088 2082 2066
4170 3 tri 2088 2107 2121
4171 3 tri 2088 2105 2082
4172 3 tri 2121 2136 2151
4173 3 tri 2082 2112 2086
4174 3 tri 2139 2121 2151
4175 3 tri 2085 2107 2088
4176 3 tri 2085 2098 2107
4177 3 tri 2088 2121 2105
4178 3 tri 2136 2161 2151
4179 3 tri 2181 2151 2161
4180 3 tri 2139 2105 2121
4181 3 tri 2178 2155 2191
4182 3 tri 2139 2151 2169
4183 3 tri 2212 2181 2187
4184 3 tri 2169 2151 2181
4185 3 tri 2229 2243 2256
4186 3 tri 2212 2205 2181
4187 3 tri 2200 2173 2178
4188 3 tri 2142 2122 2155
4189 3 tri 2181 2205 2169
4190 3 tri 2228 2261 2252
4191 3 tri 2112 2122 2086
4192 3 tri 2112 2139 2155
4193 3 tri 2191 2155 2169
4194 3 tri 2112 2105 2139
4195 3 tri 2112 2155 2122
4196 3 tri 2139 2169 2155
4197 3 tri 2110 2114 2130
4198 3 tri 2123 2142 2147
4199 3 tri 2132 2147 2168
4200 3 tri 2132 2104 2123
4201 3 tri 2176 2170 2150
4202 3 tri 2176 2150 2153
4203 3 tri 2168 2173 2198
4204 3 tri 2147 2142 2173
4205 3 tri 2199 2170 2176
4206 3 tri 2170 2146 2150
4207 3 tri 2198 2197 2168
4208 3 tri 2199 2207 2186
4209 3 tri 2149 2137 2131
4210 3 tri 2109 2110 2129
4211 3 tri 2164 2146 2170
4212 3 tri 2129 2130 2150
4213 3 tri 2058 2079 2070
4214 3 tri 2130 2129 2110
4215 3 tri 2079 2104 2093
4216 3 tri 2132 2130 2114
4217 3 tri 2123 2104 2089
4218 3 tri 2132 2114 2104
4219 3 tri 2132 2123 2147
4220 3 tri 2089 2103 2123
4221 3 tri 2073 2067 2047
4222 3 tri 2089 2104 2079
4223 3 tri 2086 2103 2073
4224 3 tri 2122 2142 2103
4225 3 tri 2056 2072 2057
4226 3 tri 2056 2070 2072
4227 3 tri 2067 2079 2058
4228 3 tri 2067 2089 2079
4229 3 tri 2079 2093 2070
4230 3 tri 2114 2110 2093
4231 3 tri 2057 2072 2078
4232 3 tri 2057 2078 2065
4233 3 tri 2072 2090 2078
4234 3 tri 2065 2078 2080
4235 3 tri 2149 2156 2137
4236 3 tri 2099 2080 2095
4237 3 tri 2119 2099 2113
4238 3 tri 2131 2137 2119
4239 3 tri 2174 2167 2188
4240 3 tri 2207 2206 2185
4241 3 tri 2211 2227 2230
4242 3 tri 2113 2131 2119
4243 3 tri 2167 2164 2185
4244 3 tri 2129 2131 2113
4245 3 tri 2146 2164 2149
4246 3 tri 2129 2146 2131
4247 3 tri 2129 2150 2146
4248 3 tri 2146 2149 2131
4249 3 tri 2164 2167 2149
4250 3 tri 2156 2167 2174
4251 3 tri 2156 2149 2167
4252 3 tri 2185 2186 2207
4253 3 tri 2185 2164 2186
4254 3 tri 2170 2199 2186
4255 3 tri 2176 2197 2199
4256 3 tri 2251 2224 2222
4257 3 tri 2249 2247 2226
4258 3 tri 2244 2227 2247
4259 3 tri 2206 2207 2226
4260 3 tri 2297 2325 2313
4261 3 tri 2271 2249 2251
4262 3 tri 2247 2227 2226
4263 3 tri 2227 2211 2209
4264 3 tri 2268 2266 2247
4265 3 tri 2245 2230 2244
4266 3 tri 2227 2209 2226
4267 3 tri 2188 2185 2206
4268 3 tri 2188 2209 2193
4269 3 tri 2206 2226 2209
4270 3 tri 2209 2211 2193
4271 3 tri 2299 2280 2286
4272 3 tri 2263 2245 2260
4273 3 tri 2280 2266 2286
4274 3 tri 2260 2244 2266
4275 3 tri 2271 2290 2268
4276 3 tri 2309 2299 2286
4277 3 tri 2260 2280 2263
4278 3 tri 2260 2266 2280
4279 3 tri 2280 2295 2281
4280 3 tri 2290 2309 2286
4281 3 tri 2311 2295 2299
4282 3 tri 2313 2309 2290
4283 3 tri 2329 2327 2309
4284 3 tri 2311 2309 2327
4285 3 tri 2329 2339 2349
4286 3 tri 2329 2309 2313
4287 3 tri 2339 2357 2349
4288 3 tri 2250 2274 2251
4289 3 tri 2352 2326 2324
4290 3 tri 2271 2297 2290
4291 3 tri 2258 2250 2232
4292 3 tri 2271 2274 2297
4293 3 tri 2271 2251 2274
4294 3 tri 2290 2297 2313
4295 3 tri 2340 2326 2350
4296 3 tri 2313 2325 2339
4297 3 tri 2301 2274 2277
4298 3 tri 2368 2347 2361
4299 3 tri 2357 2339 2347
4300 3 tri 2347 2368 2357
4301 3 tri 2376 2361 2382
4302 3 tri 2347 2325 2340
4303 3 tri 2368 2361 2376
4304 3 tri 2382 2371 2385
4305 3 tri 2350 2326 2352
4306 3 tri 2371 2388 2385
4307 3 tri 2361 2350 2371
4308 3 tri 2340 2319 2326
4309 3 tri 2360 2352 2336
4310 3 tri 2371 2350 2352
4311 3 tri 2297 2301 2325
4312 3 tri 2274 2250 2277
4313 3 tri 2361 2340 2350
4314 3 tri 2361 2347 2340
4315 3 tri 2298 2277 2258
4316 3 tri 2301 2297 2274
4317 3 tri 2298 2301 2277
4318 3 tri 2319 2325 2301
4319 3 tri 2222 2197 2218
4320 3 tri 2176 2168 2197
4321 3 tri 2273 2258 2237
4322 3 tri 2277 2250 2258
4323 3 tri 2237 2200 2213
4324 3 tri 2198 2173 2200
4325 3 tri 2232 2237 2258
4326 3 tri 2252 2287 2273
4327 3 tri 2324 2304 2287
4328 3 tri 2326 2319 2298
4329 3 tri 2304 2298 2273
4330 3 tri 2319 2301 2298
4331 3 tri 2326 2304 2324
4332 3 tri 2326 2298 2304
4333 3 tri 2213 2252 2237
4334 3 tri 2228 2191 2205
4335 3 tri 2264 2276 2238
4336 3 tri 2287 2252 2261
4337 3 tri 2261 2228 2238
4338 3 tri 2191 2169 2205
4339 3 tri 2213 2228 2252
4340 3 tri 2205 2238 2228
4341 3 tri 2201 2229 2212
4342 3 tri 2235 2238 2212
4343 3 tri 2270 2256 2243
4344 3 tri 2264 2235 2256
4345 3 tri 2238 2276 2261
4346 3 tri 2264 2284 2293
4347 3 tri 2323 2308 2292
4348 3 tri 2293 2276 2264
4349 3 tri 2308 2293 2284
4350 3 tri 2320 2305 2293
4351 3 tri 2292 2308 2284
4352 3 tri 2323 2342 2330
4353 3 tri 2323 2330 2308
4354 3 tri 2354 2344 2330
4355 3 tri 2261 2305 2287
4356 3 tri 2276 2293 2305
4357 3 tri 2380 2374 2360
4358 3 tri 2352 2324 2336
4359 3 tri 2390 2374 2380
4360 3 tri 2388 2371 2374
4361 3 tri 2374 2390 2388
4362 3 tri 2344 2360 2336
4363 3 tri 2344 2366 2360
4364 3 tri 2360 2366 2380
4365 3 tri 2344 2354 2366
4366 3 tri 2380 2383 2392
4367 3 tri 2380 2366 2383
4368 3 tri 2383 2381 2391
4369 3 tri 2370 2362 2381
4370 3 tri 2381 2389 2391
4371 3 tri 2381 2378 2389
4372 3 tri 2332 2342 2323
4373 3 tri 2354 2330 2342
4374 3 tri 2378 2362 2365
4375 3 tri 2370 2354 2362
4376 3 tri 2332 2351 2342
4377 3 tri 2362 2342 2351
4378 3 tri 2341 2353 2338
4379 3 tri 2363 2372 2373
4380 3 tri 2353 2365 2351
4381 3 tri 2378 2381 2362
4382 3 tri 2377 2378 2365
4383 3 tri 2377 2387 2378
4384 3 tri 2377 2373 2386
4385 3 tri 2377 2365 2364
4386 3 tri 2373 2384 2386
4387 3 tri 2373 2372 2384
4388 3 tri 2373 2364 2363
4389 3 tri 2372 2379 2384
4390 3 tri 2337 2346 2341
4391 3 tri 347 303 2346
4392 3 tri 2355 2363 2364
4393 3 tri 2358 2369 2363
4394 3 tri 2322 2337 2328
4395 3 tri 2346 2358 2355
4396 3 tri 2341 2355 2353
4397 3 tri 2341 2346 2355
4398 3 tri 2355 2364 2353
4399 3 tri 2373 2377 2364
4400 3 tri 2283 2288 2302
4401 3 tri 2272 513 2288
4402 3 tri 476 2307 2288
4403 3 tri 435 391 2322
4404 3 tri 435 2322 2307
4405 3 tri 391 347 2337
4406 3 tri 2328 2337 2341
4407 3 tri 2322 391 2337
4408 3 tri 2253 548 2272
4409 3 tri 582 2225 2248
4410 3 tri 2285 513 2267
4411 3 tri 476 2288 513
4412 3 tri 2202 2203 2221
4413 3 tri 582 548 2253
4414 3 tri 2262 2253 2272
4415 3 tri 2262 2240 2253
4416 3 tri 2253 2240 2236
4417 3 tri 2255 2243 2233
4418 3 tri 2318 2312 2328
4419 3 tri 2302 2307 2312
4420 3 tri 2332 2318 2338
4421 3 tri 2300 2302 2318
4422 3 tri 2328 2338 2318
4423 3 tri 2353 2351 2338
4424 3 tri 2292 2310 2323
4425 3 tri 2300 2318 2310
4426 3 tri 2310 2332 2323
4427 3 tri 2310 2318 2332
4428 3 tri 2270 2243 2255
4429 3 tri 2256 2235 2229
4430 3 tri 2279 2270 2255
4431 3 tri 2292 2284 2270
4432 3 tri 2262 2279 2255
4433 3 tri 2300 2292 2279
4434 3 tri 2163 2182 2192
4435 3 tri 2202 2221 2233
4436 3 tri 2212 2229 2235
4437 3 tri 2215 2243 2229
4438 3 tri 2240 2221 2236
4439 3 tri 2240 2255 2233
4440 3 tri 2240 2233 2221
4441 3 tri 2243 2215 2233
4442 3 tri 2124 2144 2141
4443 3 tri 2192 2202 2215
4444 3 tri 2144 2162 2163
4445 3 tri 2190 2202 2182
4446 3 tri 2229 2201 2215
4447 3 tri 2177 2163 2192
4448 3 tri 2177 2201 2187
4449 3 tri 2192 2215 2201
4450 3 tri 2071 2081 2098
4451 3 tri 2084 773 2102
4452 3 tri 2107 2125 2136
4453 3 tri 2107 2098 2125
4454 3 tri 2085 2071 2098
4455 3 tri 2085 2063 2071
4456 3 tri 2098 2081 2100
4457 3 tri 2071 2061 2081
4458 3 tri 2061 2068 2081
4459 3 tri 2052 827 800
4460 3 tri 2100 2102 2124
4461 3 tri 2100 2084 2102
4462 3 tri 773 751 2102
4463 3 tri 2138 706 2157
4464 3 tri 2141 2144 2163
4465 3 tri 2124 2120 2138
4466 3 tri 2163 2162 2182
4467 3 tri 2144 2138 2157
4468 3 tri 2124 2138 2144
4469 3 tri 2175 682 659
4470 3 tri 729 706 2138
4471 3 tri 2134 2111 2127
4472 3 tri 2068 800 2084
4473 3 tri 827 2059 800
4474 3 tri 2120 751 729
4475 3 tri 2120 2102 751
4476 3 tri 2077 2069 2092
4477 3 tri 2077 2059 2069
4478 3 tri 2111 2097 2092
4479 3 tri 751 773 2097
4480 3 tri 2165 2154 2145
4481 3 tri 2111 2092 2106
4482 3 tri 729 2134 706
4483 3 tri 729 2111 2134
4484 3 tri 682 2154 2172
4485 3 tri 2134 2127 2154
4486 3 tri 2175 659 2190
4487 3 tri 2165 2160 2183
4488 3 tri 2172 2189 659
4489 3 tri 611 582 2236
4490 3 tri 2144 2157 2162
4491 3 tri 706 682 2157
4492 3 tri 2182 2175 2190
4493 3 tri 2157 682 2175
4494 3 tri 659 2203 2190
4495 3 tri 659 2189 633
4496 3 tri 2221 2219 2236
4497 3 tri 633 2189 2208
4498 3 tri 2203 633 2219
4499 3 tri 2203 659 633
4500 3 tri 2183 2204 2189
4501 3 tri 2231 2216 2241
4502 3 tri 633 611 2219
4503 3 tri 2208 2225 611
4504 3 tri 2204 2183 2195
4505 3 tri 2189 2172 2165
4506 3 tri 2189 2204 2208
4507 3 tri 2195 2210 2216
4508 3 tri 2184 2210 2195
4509 3 tri 2184 2166 2196
4510 3 tri 2195 2216 2204
4511 3 tri 2210 2217 2234
4512 3 tri 2166 2159 2140
4513 3 tri 2184 2195 2171
4514 3 tri 2143 2171 2160
4515 3 tri 2159 2184 2171
4516 3 tri 2165 2145 2160
4517 3 tri 2154 2127 2145
4518 3 tri 2189 2165 2183
4519 3 tri 2172 2154 2165
4520 3 tri 2111 2106 2127
4521 3 tri 2092 2069 2083
4522 3 tri 2127 2126 2145
4523 3 tri 2101 2091 2116
4524 3 tri 2092 2083 2106
4525 3 tri 2060 2051 2076
4526 3 tri 2106 2101 2126
4527 3 tri 2106 2083 2101
4528 3 tri 2087 2108 2075
4529 3 tri 2091 2062 2075
4530 3 tri 2101 2076 2091
4531 3 tri 2083 2060 2076
4532 3 tri 2143 2126 2116
4533 3 tri 2126 2101 2116
4534 3 tri 2159 2133 2140
4535 3 tri 2159 2171 2143
4536 3 tri 2159 2143 2133
4537 3 tri 2160 2145 2143
4538 3 tri 2116 2108 2133
4539 3 tri 2087 2064 2096
4540 3 tri 2096 2118 2087
4541 3 tri 2128 2152 2118
4542 3 tri 2108 2087 2118
4543 3 tri 2075 2054 2087
4544 3 tri 2037 2074 2064
4545 3 tri 2074 2094 2115
4546 3 tri 2064 2074 2096
4547 3 tri 2050 2094 2074
4548 3 tri 2135 2179 2158
4549 3 tri 2096 2115 2128
4550 3 tri 2094 2135 2115
4551 3 tri 2194 2223 2214
4552 3 tri 2220 2223 2194
4553 3 tri 2158 2180 2152
4554 3 tri 2214 2246 2239
4555 3 tri 2166 2140 2152
4556 3 tri 2133 2108 2140
4557 3 tri 2180 2166 2152
4558 3 tri 2184 2159 2166
4559 3 tri 2184 2196 2217
4560 3 tri 2180 2194 2214
4561 3 tri 2184 2217 2210
4562 3 tri 2196 2214 2217
4563 3 tri 2158 2194 2180
4564 3 tri 2179 2220 2194
4565 3 tri 2180 2214 2196
4566 3 tri 2223 2246 2214
4567 3 tri 2254 2275 2246
4568 3 tri 2294 2275 2254
4569 3 tri 2239 2269 2265
4570 3 tri 2356 2345 2359
4571 3 tri 2275 2291 2269
4572 3 tri 2275 2294 2291
4573 3 tri 2317 2291 2294
4574 3 tri 2291 2289 2269
4575 3 tri 2291 2317 2314
4576 3 tri 2278 2282 2296
4577 3 tri 2334 2335 2348
4578 3 tri 2214 2239 2217
4579 3 tri 2246 2269 2239
4580 3 tri 2239 2265 2242
4581 3 tri 2269 2289 2265
4582 3 tri 2259 2241 2257
4583 3 tri 2216 2210 2234
4584 3 tri 2234 2241 2216
4585 3 tri 2234 2242 2257
4586 3 tri 611 2225 582
4587 3 tri 2208 2204 2225
4588 3 tri 2259 2248 2241
4589 3 tri 2225 2204 2231
4590 3 tri 548 2248 2267
4591 3 tri 548 582 2248
4592 3 tri 2306 2315 2296
4593 3 tri 435 476 2303
4594 3 tri 2259 2257 2278
4595 3 tri 2241 2234 2257
4596 3 tri 2285 2259 2278
4597 3 tri 2267 2248 2259
4598 3 tri 2257 2282 2278
4599 3 tri 2265 2289 2282
4600 3 tri 391 2331 347
4601 3 tri 2333 2321 2334
4602 3 tri 303 2343 2356
4603 3 tri 2321 2315 2306
4604 3 tri 2296 2315 2303
4605 3 tri 2331 391 2316
4606 3 tri 2358 303 266
4607 3 tri 2358 2346 303
4608 3 tri 2369 266 228
4609 3 tri 2369 2358 266
4610 3 tri 2369 2375 2379
4611 3 tri 303 2356 266
4612 3 tri 2345 2334 2348
4613 3 tri 266 2367 228
4614 3 tri 2369 228 2375
4615 3 tri 2343 2345 2356
4616 3 tri 2343 2331 2333
4617 3 tri 2356 2359 2367
4618 3 tri 2316 2315 2331
4619 3 tri 2316 2303 2315
4620 3 tri 2343 2333 2345
4621 3 tri 2331 2315 2333
4622 3 tri 2289 2314 2306
4623 3 tri 2289 2291 2314
4624 3 tri 2335 2314 2317
4625 3 tri 2335 2334 2314
4626 3 tri 2333 2315 2321
4627 3 tri 2333 2334 2345
4628 3 tri 2321 2314 2334
4629 3 tri 2345 2348 2359
