10780 21641 0 0 0
1 7.519777 9.272513 6.239646
2 7.777466 9.142055 5.961597
3 8.047871 9.005160 5.669828
4 8.320410 8.867184 5.375756
5 7.223514 9.310125 6.510454
6 8.673665 8.495360 4.910679
7 6.900225 9.351169 6.805966
8 6.604377 9.388729 7.076395
9 8.955972 8.198212 4.539007
10 8.287306 8.415867 5.207950
11 7.653080 8.690332 5.872014
12 7.346369 8.844282 6.202380
13 7.956703 8.519471 5.536946
14 9.088958 7.923136 4.305181
15 6.260005 9.324929 7.344428
16 7.015941 8.938259 6.527040
17 8.459118 8.089958 4.918673
18 9.239736 7.611260 4.040073
19 5.935289 9.264770 7.597161
20 6.664559 8.872553 6.800265
21 6.328783 8.926090 7.111934
22 8.598914 7.767780 4.658518
23 7.597372 8.232567 5.720816
24 7.265870 8.398513 6.077692
25 7.948094 8.051642 5.340921
26 5.631730 9.208531 7.833427
27 9.386527 7.307630 3.781975
28 8.848931 7.575092 4.360000
29 6.933272 8.543701 6.426483
30 5.988929 8.835433 7.364408
31 8.168051 7.727766 5.011178
32 8.994321 7.182160 4.064275
33 6.337784 8.513791 6.924930
34 5.280090 9.039644 8.062009
35 9.460175 6.915730 3.548315
36 5.695054 8.811087 7.606225
37 6.578518 8.340167 6.642674
38 7.513635 7.820614 5.613613
39 7.179837 7.972022 5.966139
40 6.864065 8.125417 6.304048
41 8.610242 7.234322 4.416833
42 8.296963 7.333313 4.728944
43 7.770524 7.587092 5.291438
44 6.026721 8.458734 7.168155
45 5.423789 8.753199 7.814038
46 4.960076 8.885947 8.270031
47 9.088252 6.771174 3.804897
48 5.687812 8.426973 7.445427
49 9.398599 6.517587 3.428083
50 7.937903 7.253413 5.002591
51 6.207605 8.103878 6.858501
52 5.139389 8.623001 8.001691
53 8.707288 6.811251 4.149524
54 6.505605 7.921038 6.523054
55 7.127960 7.594595 5.846585
56 6.804193 7.749478 6.192006
57 7.391018 7.411167 5.540892
58 4.662951 8.743242 8.463176
59 9.585021 6.251397 3.152226
60 5.369008 8.383957 7.700536
61 8.359424 6.862894 4.470753
62 5.853477 8.115856 7.167862
63 7.594735 7.156440 5.255165
64 8.054181 6.889739 4.744592
65 4.851167 8.490912 8.191805
66 6.811939 7.411742 6.038500
67 9.043314 6.281356 3.630513
68 5.505881 8.067699 7.445466
69 6.225755 7.699445 6.667059
70 8.755334 6.415759 3.936293
71 5.053171 8.288899 7.930469
72 5.979881 7.795050 6.919805
73 6.498124 7.521754 6.355865
74 7.045434 7.207428 5.749118
75 7.739267 6.834423 4.991012
76 8.421840 6.468828 4.245799
77 4.369224 8.508939 8.613573
78 9.266611 6.018330 3.324360
79 7.256648 7.033082 5.491903
80 5.216734 8.059913 7.690421
81 4.588368 8.368262 8.364186
82 5.684336 7.811729 7.180895
83 9.568375 5.833597 2.984857
84 8.110028 6.499619 4.526996
85 7.439930 6.782029 5.225324
86 4.755493 8.138025 8.120536
87 6.219957 7.377161 6.531904
88 6.555647 7.200644 6.166836
89 4.931189 7.994076 7.907043
90 5.774659 7.537289 6.983988
91 6.757436 7.039461 5.923439
92 7.815553 6.503737 4.781705
93 5.437819 7.695625 7.342139
94 5.252508 7.761920 7.530124
95 8.737088 5.997403 3.770056
96 5.961389 7.392767 6.760769
97 8.458984 6.104270 4.055381
98 4.304616 8.200828 8.535092
99 8.983491 5.817792 3.480329
100 4.499810 8.059882 8.306159
101 6.932029 6.828163 5.681609
102 4.070375 8.270550 8.766592
103 7.155411 6.706672 5.436925
104 5.027449 7.773263 7.728355
105 6.300121 7.119438 6.350992
106 9.257695 5.609299 3.154166
107 7.510331 6.481261 5.034080
108 9.552904 5.445281 2.829299
109 8.160100 6.144380 4.329527
110 5.521309 7.449106 7.163241
111 7.878141 6.173051 4.584162
112 4.605818 7.827895 8.114239
113 4.774086 7.742656 7.932654
114 6.035998 7.086105 6.563348
115 6.428688 6.886037 6.139082
116 5.667317 7.242041 6.947803
117 6.618717 6.758011 5.920202
118 7.235229 6.438330 5.251692
119 4.227879 7.935549 8.485653
120 5.078291 7.492505 7.562610
121 7.583827 6.214198 4.854833
122 5.266576 7.386387 7.354754
123 8.459359 5.740475 3.896876
124 8.710420 5.606898 3.623164
125 4.392155 7.790359 8.281429
126 4.869899 7.546078 7.764887
127 3.995575 7.982486 8.705582
128 5.798595 7.066449 6.758701
129 6.962504 6.474738 5.501760
130 8.968170 5.439605 3.329046
131 8.196609 5.817298 4.155949
132 6.742393 6.543894 5.720879
133 6.139564 6.825775 6.361202
134 3.758911 8.022097 8.926071
135 9.538983 5.095880 2.689331
136 9.222919 5.239048 3.023043
137 5.408485 7.167757 7.137808
138 4.581832 7.542589 8.010785
139 7.921511 5.850307 4.406578
140 7.293853 6.167223 5.083460
141 6.314701 6.633507 6.127179
142 7.648356 5.954218 4.686367
143 5.886491 6.818892 6.575568
144 4.702406 7.408108 7.848752
145 5.536371 6.974828 6.944081
146 4.191155 7.653690 8.394638
147 4.386554 7.551902 8.182554
148 6.470703 6.492159 5.931733
149 4.874044 7.288923 7.649513
150 7.044386 6.189595 5.307449
151 4.015654 7.722214 8.575166
152 5.027230 7.193419 7.476418
153 5.191387 7.080150 7.286176
154 6.813570 6.238399 5.526912
155 7.381133 5.946236 4.912408
156 8.453461 5.400030 3.753911
157 8.686734 5.267539 3.495949
158 5.655168 6.795163 6.763928
159 8.216655 5.491381 3.997019
160 6.103283 6.542447 6.269167
161 6.605150 6.286764 5.726950
162 9.272037 4.936167 2.849159
163 8.915219 5.104334 3.228744
164 3.795126 7.690968 8.750987
165 3.569337 7.796378 8.990746
166 7.681875 5.709488 4.551166
167 7.977134 5.557263 4.231385
168 5.923022 6.581153 6.440820
169 5.308375 6.887724 7.102028
170 4.422914 7.330066 8.054867
171 4.158682 7.452777 8.335167
172 4.546757 7.253845 7.915360
173 4.692557 7.170082 7.753714
174 9.453467 4.744456 2.609974
175 7.106662 5.908008 5.131524
176 6.216672 6.349866 6.088043
177 3.942061 7.470870 8.529085
178 5.418511 6.723142 6.935872
179 5.723278 6.567494 6.606436
180 4.249486 7.313441 8.196593
181 7.437449 5.695439 4.754989
182 6.378588 6.229846 5.896790
183 6.889623 5.969415 5.344635
184 4.965961 6.934861 7.416616
185 4.784667 7.014695 7.607038
186 9.026505 4.863117 3.028278
187 7.741838 5.497917 4.407671
188 5.113622 6.818775 7.239317
189 6.680860 6.019279 5.545618
190 7.220711 5.711137 4.947966
191 5.521291 6.561039 6.777112
192 5.978889 6.324799 6.281370
193 8.427120 5.082317 3.638388
194 8.226855 5.180480 3.853074
195 8.645172 4.958725 3.397368
196 4.565818 7.011992 7.793827
197 4.428722 7.080371 7.941308
198 6.483661 6.039423 5.723747
199 8.009219 5.262951 4.075856
200 3.577730 7.491271 8.850872
201 4.027048 7.262083 8.365308
202 4.292879 7.124113 8.077000
203 5.794718 6.339320 6.445864
204 7.484053 5.473120 4.618295
205 5.210653 6.623732 7.071171
206 3.367007 7.555472 9.059773
207 9.161491 4.604783 2.800015
208 3.714514 7.359901 8.676270
209 7.803688 5.264517 4.253064
210 6.194609 6.077946 5.988757
211 6.906957 5.714727 5.219004
212 8.776575 4.759974 3.198089
213 6.050852 6.139826 6.139133
214 9.382325 4.452103 2.543957
215 4.126917 7.112314 8.214411
216 5.590300 6.363384 6.631898
217 4.756452 6.780153 7.529289
218 5.322582 6.486058 6.915175
219 6.720562 5.777755 5.406500
220 4.910821 6.693126 7.358864
221 7.047110 5.590851 5.044766
222 5.041056 6.599675 7.206374
223 4.578629 6.826537 7.702186
224 3.822513 7.199209 8.513640
225 6.292422 5.947026 5.847822
226 7.240604 5.466031 4.824305
227 6.531161 5.811889 5.584014
228 4.296764 6.927716 7.988267
229 7.566191 5.271068 4.459893
230 4.410777 6.856997 7.859595
231 5.414608 6.336169 6.770962
232 5.858669 6.108410 6.290534
233 8.411505 4.809951 3.533371
234 8.024110 4.998984 3.948290
235 8.906532 4.549236 2.994840
236 5.634115 6.193725 6.520496
237 4.172754 6.921219 8.091952
238 3.931541 7.029272 8.346108
239 8.188283 4.872511 3.752293
240 6.367029 5.778839 5.710614
241 7.339139 5.271096 4.654915
242 5.156068 6.375924 7.010303
243 5.720833 6.072923 6.393489
244 5.039847 6.413692 7.126544
245 8.545762 4.637791 3.343203
246 3.430130 7.227476 8.862940
247 7.830376 4.993622 4.112352
248 6.060178 5.882499 6.019234
249 9.156584 4.314135 2.677851
250 3.183429 7.336892 9.122402
251 6.712938 5.547951 5.313126
252 4.740175 6.545268 7.441137
253 5.924544 5.940836 6.161093
254 7.640761 5.071063 4.308881
255 4.027191 6.898181 8.206956
256 4.566393 6.622801 7.624107
257 4.884304 6.459656 7.280122
258 6.856935 5.454713 5.148909
259 6.546939 5.609675 5.482537
260 7.018586 5.361674 4.969616
261 5.232298 6.256328 6.892828
262 5.459747 6.135711 6.645031
263 3.577175 7.076810 8.671135
264 6.160409 5.767205 5.883016
265 4.378653 6.665563 7.803946
266 4.235060 6.736386 7.958070
267 9.310497 4.156928 2.477302
268 8.668020 4.456589 3.159408
269 3.738342 6.951921 8.478408
270 8.964157 4.305598 2.839410
271 7.135696 5.227746 4.810799
272 5.326976 6.140514 6.761154
273 7.416697 5.068430 4.500180
274 8.223929 4.646924 3.623589
275 5.527244 6.000618 6.528319
276 6.387993 5.560932 5.597858
277 7.955406 4.762984 3.904682
278 4.109182 6.709458 8.054476
279 6.238769 5.621793 5.752487
280 5.762972 5.854076 6.262139
281 4.919636 6.276889 7.170307
282 5.637975 5.904145 6.391266
283 5.032661 6.185541 7.033512
284 8.354781 4.501585 3.448008
285 4.742935 6.324581 7.342809
286 4.425277 6.481752 7.683978
287 6.525113 5.415592 5.416893
288 7.232466 5.056865 4.653384
289 3.846096 6.770819 8.307115
290 5.868400 5.738620 6.121387
291 4.585158 6.386413 7.505205
292 3.975058 6.694098 8.162993
293 6.669525 5.329623 5.255481
294 7.634047 4.835234 4.212105
295 5.145686 6.094192 6.896718
296 8.753958 4.260018 3.000126
297 5.983448 5.662452 5.989455
298 6.811102 5.241359 5.095504
299 7.479964 4.893271 4.369679
300 7.765320 4.738491 4.057293
301 5.258711 6.002843 6.759923
302 3.219810 7.031560 8.958392
303 4.173355 6.545055 7.927874
304 6.930966 5.143117 4.949839
305 8.031767 4.576609 3.758058
306 9.061698 4.044450 2.642083
307 5.371736 5.911494 6.623129
308 6.079559 5.550182 5.858092
309 4.273747 6.456961 7.803344
310 8.470480 4.329860 3.273967
311 2.976414 7.090408 9.193028
312 9.251305 3.913684 2.422374
313 5.484761 5.820145 6.486335
314 7.038351 5.023959 4.805797
315 6.203948 5.442466 5.704420
316 6.331667 5.373495 5.564735
317 3.530792 6.789762 8.586159
318 4.879273 6.100070 7.128090
319 5.597786 5.728796 6.349540
320 4.747848 6.157815 7.266077
321 3.672324 6.692744 8.422416
322 7.289402 4.848691 4.513965
323 3.346055 6.842796 8.767886
324 8.856443 4.052359 2.821811
325 4.027374 6.493771 8.030955
326 8.151025 4.405330 3.581156
327 5.710811 5.637448 6.212746
328 6.425511 5.263698 5.436393
329 4.392898 6.290617 7.628680
330 5.097502 5.930736 6.867029
331 6.542518 5.189030 5.303431
332 4.969433 5.982194 6.999399
333 7.818368 4.539007 3.924992
334 5.823835 5.546099 6.075951
335 7.132221 4.881850 4.663382
336 3.888663 6.522520 8.162591
337 8.559080 4.153357 3.121125
338 6.657368 5.105093 5.168292
339 4.552680 6.167639 7.437974
340 7.543319 4.642665 4.206298
341 5.936860 5.454750 5.939157
342 7.405565 4.710889 4.354276
343 5.209013 5.817018 6.721808
344 8.282125 4.254499 3.402973
345 6.767348 5.015574 5.034909
346 5.329003 5.738009 6.584397
347 4.111651 6.353725 7.897677
348 6.049885 5.363401 5.802362
349 6.875279 4.921676 4.901381
350 3.739397 6.506091 8.283648
351 7.653520 4.522467 4.059385
352 4.225490 6.255836 7.757340
353 6.162910 5.272052 5.665568
354 5.450058 5.624832 6.431215
355 8.666967 3.992436 2.958492
356 7.871417 4.388921 3.814170
357 9.027487 3.800413 2.565355
358 6.275935 5.180703 5.528773
359 4.770992 5.936067 7.149780
360 6.980076 4.811900 4.763641
361 7.980553 4.303339 3.683223
362 2.863812 6.890949 9.203012
363 5.555142 5.526658 6.298273
364 4.614610 5.999752 7.311783
365 5.679836 5.448615 6.157242
366 6.388960 5.089355 5.391979
367 8.851935 3.833411 2.730480
368 5.036430 5.760693 6.845545
369 7.112187 4.708983 4.605424
370 3.964546 6.298874 8.000172
371 4.348697 6.102541 7.584864
372 8.379563 4.058749 3.234171
373 7.233509 4.637192 4.470008
374 3.070091 6.743664 8.961801
375 6.501985 4.998006 5.255185
376 5.804993 5.345155 6.004761
377 8.094838 4.177940 3.530541
378 3.542192 6.482290 8.442674
379 9.133271 3.651732 2.409851
380 4.886392 5.789262 6.986831
381 6.615010 4.906657 5.118390
382 3.379152 6.543851 8.609474
383 3.823625 6.312466 8.127116
384 7.345077 4.529547 4.327379
385 5.911536 5.252672 5.873041
386 5.293505 5.559051 6.537073
387 7.462222 4.452830 4.193407
388 6.728035 4.815308 4.981596
389 5.143240 5.614881 6.690407
390 6.045182 5.157862 5.717031
391 4.049946 6.162395 7.867480
392 8.211530 4.047458 3.373581
393 7.693989 4.304466 3.929837
394 6.841059 4.723959 4.844801
395 8.480242 3.892135 3.075253
396 7.564611 4.346968 4.059437
397 4.158504 6.068745 7.733522
398 6.145140 5.051131 5.584770
399 8.644281 3.781997 2.886475
400 6.954084 4.632611 4.708007
401 4.417072 5.911520 7.443080
402 7.790067 4.183706 3.794809
403 3.170140 6.518892 8.778137
404 5.384094 5.396126 6.388425
405 3.636968 6.280226 8.273413
406 6.253676 4.954698 5.449621
407 5.666471 5.250629 6.082633
408 7.067109 4.541262 4.571212
409 5.518509 5.312808 6.236751
410 6.370187 4.879612 5.316903
411 4.571422 5.788095 7.256845
412 4.710086 5.716961 7.106819
413 7.908493 4.095512 3.654747
414 8.913195 3.577950 2.566788
415 7.180134 4.449913 4.434418
416 4.949437 5.571851 6.838150
417 3.883927 6.108555 7.986660
418 8.757995 3.639284 2.726754
419 2.745296 6.681016 9.213520
420 4.241448 5.920768 7.597941
421 8.021425 3.990972 3.512297
422 5.901774 5.063233 5.799054
423 7.293159 4.358564 4.297623
424 8.272458 3.845868 3.233597
425 6.693796 4.637435 4.933661
426 6.566740 4.698528 5.069350
427 5.197322 5.388044 6.545325
428 7.406184 4.267215 4.160829
429 6.443949 4.754271 5.199050
430 9.036276 3.436473 2.399559
431 5.747182 5.099645 5.947663
432 8.131270 3.879721 3.369580
433 3.436708 6.253364 8.433732
434 3.720577 6.106598 8.126107
435 3.988242 5.971064 7.837284
436 7.519209 4.175866 4.024035
437 6.796508 4.529194 4.798379
438 4.774553 5.540987 6.974934
439 8.353192 3.723433 3.111020
440 5.042572 5.399021 6.683010
441 8.479484 3.657784 2.974006
442 7.632234 4.084518 3.887240
443 5.986154 4.915243 5.662234
444 4.083669 5.861294 7.707593
445 6.902637 4.433601 4.665662
446 7.745259 3.993169 3.750446
447 6.103099 4.817089 5.519113
448 2.901424 6.435721 8.972767
449 5.545608 5.088997 6.116160
450 3.237961 6.256920 8.605978
451 8.587175 3.547883 2.833725
452 4.397749 5.666786 7.353262
453 7.015677 4.340469 4.528078
454 7.858284 3.901820 3.613651
455 6.236602 4.710494 5.358102
456 3.843699 5.921361 7.939817
457 4.218246 5.730734 7.535239
458 5.368111 5.146701 6.293698
459 7.131248 4.246526 4.387969
460 8.714738 3.442853 2.678495
461 7.971308 3.810471 3.476857
462 5.213125 5.198706 6.449425
463 8.839404 3.360095 2.535438
464 7.250138 4.159699 4.248104
465 3.525122 6.042885 8.266276
466 4.554054 5.514879 7.152964
467 6.602044 4.476619 4.942539
468 7.378653 4.082394 4.104112
469 8.084333 3.719122 3.340062
470 5.792704 4.876230 5.811421
471 4.860676 5.324683 6.806913
472 3.697765 5.911862 8.061026
473 2.618669 6.456713 9.224747
474 8.197358 3.627773 3.203268
475 8.949614 3.244144 2.390364
476 3.926537 5.779734 7.807087
477 6.445060 4.504293 5.089402
478 6.310284 4.551143 5.225529
479 8.310383 3.536425 3.066473
480 7.463503 3.959047 3.977603
481 5.606158 4.899222 5.981637
482 6.701996 4.342913 4.798555
483 7.610029 3.872926 3.814308
484 3.003331 6.197339 8.781589
485 4.034592 5.671314 7.667139
486 8.423408 3.445076 2.929679
487 5.017414 5.154111 6.598127
488 6.826698 4.231583 4.643043
489 3.310918 6.006452 8.434410
490 8.536433 3.353727 2.792885
491 4.237495 5.529724 7.431304
492 7.723312 3.762194 3.668864
493 4.662632 5.310749 6.970950
494 6.041655 4.605637 5.479944
495 5.885512 4.683426 5.647875
496 5.390744 4.925866 6.178238
497 7.859569 3.672168 3.512691
498 6.959599 4.122656 4.481534
499 8.649458 3.262378 2.656090
500 3.776086 5.727384 7.913544
501 3.538636 5.836300 8.164843
502 7.258197 3.942698 4.146827
503 7.100200 4.017868 4.315212
504 8.006875 3.556854 3.336033
505 8.762483 3.171029 2.519296
506 4.354331 5.398895 7.274070
507 5.164770 4.959803 6.387078
508 4.088049 5.503727 7.548356
509 8.875508 3.079680 2.382501
510 6.485698 4.287593 4.960274
511 8.141093 3.444621 3.171956
512 6.140585 4.437954 5.322064
513 3.864833 5.588404 7.776890
514 5.670271 4.672114 5.827822
515 7.456049 3.765092 3.899670
516 3.090018 5.956904 8.602591
517 8.260847 3.337362 3.022464
518 4.797226 5.084403 6.756931
519 8.398092 3.256306 2.869342
520 3.622382 5.673344 8.022060
521 2.724108 6.117879 8.986857
522 2.491839 6.232053 9.235993
523 3.358623 5.789432 8.299073
524 6.614128 4.138410 4.785102
525 4.439522 5.227697 7.126462
526 3.944146 5.465334 7.655257
527 6.282893 4.281288 5.131718
528 5.457185 4.692958 6.019901
529 7.287723 3.759140 4.041654
530 7.549170 3.622928 3.757876
531 7.842759 3.466583 3.437737
532 6.761326 4.009775 4.602744
533 8.599603 3.070351 2.615413
534 7.680883 3.528605 3.603737
535 8.815560 2.946640 2.376141
536 4.162468 5.302025 7.396736
537 3.710890 5.519511 7.879153
538 5.920826 4.399110 5.493920
539 4.940801 4.894857 6.551200
540 5.244405 4.740191 6.223190
541 6.919995 3.890509 4.414609
542 7.989238 3.334776 3.254618
543 7.092907 3.787081 4.221126
544 8.449252 3.090071 2.753120
545 4.572070 5.043393 6.932481
546 5.740793 4.450451 5.670870
547 3.441339 5.598105 8.144838
548 3.803128 5.397073 7.746694
549 3.158645 5.721770 8.441409
550 2.837324 5.878874 8.785695
551 4.009864 5.282870 7.519475
552 8.106338 3.203339 3.096892
553 6.391488 4.067988 4.945702
554 8.263776 3.114747 2.923152
555 4.225055 5.131945 7.269028
556 8.634817 2.896621 2.509628
557 7.343647 3.549589 3.902506
558 6.054004 4.194846 5.290719
559 3.544647 5.447557 7.990649
560 5.506621 4.451997 5.872668
561 3.874883 5.261413 7.626078
562 6.543266 3.905444 4.744667
563 5.043636 4.663422 6.362246
564 7.828911 3.249250 3.355132
565 2.364628 6.006716 9.247272
566 8.740064 2.779091 2.368130
567 4.685852 4.806162 6.731604
568 7.660955 3.296451 3.519909
569 4.341776 4.972270 7.099350
570 6.716704 3.768395 4.536114
571 7.124571 3.559488 4.094969
572 3.247931 5.514478 8.274589
573 3.643021 5.309914 7.846308
574 7.473167 3.369998 3.713175
575 5.254379 4.492665 6.106996
576 6.909499 3.650379 4.319211
577 8.455086 2.854123 2.645516
578 2.936778 5.647026 8.599466
579 6.171038 4.000548 5.105718
580 4.020331 5.078958 7.421821
581 5.822164 4.161966 5.475545
582 3.741424 5.205743 7.716497
583 8.283986 2.895617 2.810513
584 2.546127 5.790176 8.997231
585 7.928635 3.064475 3.189138
586 8.104648 2.965482 2.994920
587 3.359994 5.356965 8.109852
588 4.800180 4.608446 6.547440
589 5.604805 4.198366 5.678057
590 3.856912 5.077950 7.561740
591 4.455631 4.766476 6.912080
592 7.251084 3.331979 3.887386
593 6.307372 3.806674 4.904324
594 4.110745 4.910621 7.270972
595 3.476022 5.220959 7.951061
596 3.043375 5.428233 8.412778
597 8.613821 2.596613 2.397213
598 7.725827 3.037160 3.351448
599 5.351609 4.224115 5.906718
600 6.481327 3.649781 4.686698
601 7.510413 3.115548 3.570547
602 5.926192 3.916959 5.279664
603 2.679226 5.554290 8.780348
604 3.581722 5.092921 7.804605
605 6.676570 3.517295 4.461402
606 4.959510 4.383911 6.312964
607 6.879994 3.409111 4.239646
608 8.438887 2.617951 2.556738
609 4.224488 4.750346 7.103590
610 7.052949 3.312375 4.049036
611 3.679719 5.014413 7.686300
612 3.918055 4.865535 7.416865
613 3.158620 5.235373 8.229938
614 7.919205 2.818931 3.090471
615 5.112628 4.237677 6.117870
616 3.777128 4.908214 7.556461
617 8.255614 2.638278 2.722986
618 7.298946 3.102678 3.746575
619 8.084149 2.703902 2.898788
620 3.291085 5.118914 8.065529
621 4.522534 4.488624 6.733804
622 5.677097 3.903540 5.487772
623 2.811902 5.339275 8.572904
624 2.234950 5.630663 9.195135
625 6.051843 3.696662 5.075957
626 3.429655 4.996529 7.893299
627 4.312541 4.531163 6.932659
628 4.009790 4.682853 7.258643
629 7.558878 2.877061 3.425223
630 5.403450 3.956017 5.745619
631 4.707908 4.305140 6.494809
632 6.221640 3.523484 4.854822
633 3.618015 4.823082 7.656104
634 7.726378 2.738678 3.221190
635 8.450617 2.360708 2.434810
636 2.952600 5.142786 8.366625
637 3.507860 4.855384 7.764758
638 7.063864 3.052132 3.926503
639 6.425955 3.374545 4.614580
640 2.401551 5.411029 8.956545
641 3.727060 4.727036 7.520684
642 6.644724 3.240780 4.368520
643 4.110517 4.518523 7.100677
644 3.843075 4.641982 7.384059
645 6.839726 3.104585 4.141818
646 7.343367 2.840954 3.594622
647 3.256962 4.907600 8.002953
648 5.781278 3.615597 5.273091
649 5.116396 3.950029 5.989561
650 8.245416 2.365715 2.613230
651 3.080578 4.952309 8.173886
652 7.868120 2.522051 3.005258
653 2.550256 5.208238 8.740649
654 8.039839 2.401964 2.805558
655 4.859023 4.011347 6.237274
656 5.478715 3.693914 5.567009
657 3.341410 4.760047 7.866265
658 4.246202 4.292791 6.885988
659 3.556310 4.631752 7.625907
660 4.431455 4.188461 6.681515
661 3.905848 4.433129 7.239332
662 2.713486 5.035251 8.525238
663 7.107319 2.801354 3.780139
664 7.487297 2.603123 3.367590
665 3.651910 4.541672 7.504630
666 5.933976 3.366912 5.033811
667 3.425995 4.620846 7.733090
668 4.042682 4.302091 7.064831
669 4.596098 4.015071 6.464714
670 3.752364 4.441818 7.374934
671 6.152139 3.223964 4.784279
672 2.869788 4.869945 8.319116
673 6.393552 3.079236 4.514005
674 3.130168 4.718841 8.029779
675 2.099693 5.238431 9.140756
676 5.159621 3.677521 5.833945
677 7.645331 2.412512 3.148978
678 8.257578 2.081677 2.479281
679 6.603715 2.916929 4.262927
680 6.836049 2.788106 4.007367
681 5.556522 3.430162 5.385499
682 3.494606 4.440421 7.595710
683 7.231727 2.540178 3.559724
684 3.246093 4.555478 7.859181
685 2.268548 5.020426 8.900939
686 8.028170 2.090728 2.680249
687 3.587239 4.337406 7.471357
688 4.218633 4.009416 6.786451
689 2.917986 4.665727 8.188922
690 3.854286 4.182152 7.174489
691 3.717146 4.243077 7.318767
692 4.031857 4.080081 6.977595
693 7.795969 2.168636 2.913557
694 2.458662 4.867607 8.671206
695 3.350078 4.408574 7.705994
696 4.861382 3.626712 6.068003
697 5.249181 3.426702 5.647963
698 2.655823 4.729096 8.441642
699 5.666918 3.192268 5.187243
700 4.376113 3.830471 6.573387
701 4.607187 3.709678 6.322400
702 3.055054 4.494484 7.996738
703 6.966684 2.500059 3.769920
704 7.365038 2.297791 3.339833
705 6.118960 2.901452 4.672543
706 3.432901 4.249091 7.565513
707 3.181606 4.335614 7.818967
708 5.873868 2.970655 4.913138
709 3.543894 4.146861 7.425733
710 6.311770 2.732741 4.433585
711 7.536275 2.105204 3.109022
712 3.823299 3.957906 7.103598
713 6.521114 2.586087 4.190016
714 3.660081 4.027826 7.274185
715 3.983035 3.839378 6.914867
716 3.279254 4.194046 7.673543
717 2.845362 4.409128 8.139724
718 6.704546 2.451294 3.973860
719 2.672282 4.489804 8.323458
720 5.317567 3.148232 5.468145
721 1.961994 4.839115 9.085395
722 8.037382 1.763392 2.530007
723 4.148042 3.729369 6.725312
724 7.087927 2.226325 3.546763
725 7.826224 1.847560 2.747963
726 3.003338 4.266661 7.942096
727 4.974059 3.265412 5.814128
728 2.404117 4.551629 8.580662
729 3.371197 4.057761 7.535317
730 2.177735 4.642921 8.814791
731 3.462528 3.974216 7.420548
732 7.616162 1.868057 2.937294
733 7.279480 2.033941 3.298591
734 4.313786 3.515916 6.490145
735 4.524108 3.400779 6.259441
736 3.104583 4.103033 7.783990
737 6.827951 2.205340 3.760926
738 3.651822 3.800582 7.182468
739 5.586226 2.819992 5.094677
740 3.517904 3.854846 7.321083
741 4.702832 3.245722 6.038518
742 5.972923 2.597087 4.665628
743 3.780307 3.706136 7.031049
744 3.208326 3.984045 7.643150
745 2.804563 4.174970 8.072950
746 6.201303 2.443611 4.402744
747 5.352955 2.869148 5.316401
748 7.387015 1.828524 3.116913
749 3.903377 3.578807 6.869982
750 2.437253 4.309536 8.446936
751 3.309492 3.866430 7.505120
752 4.071465 3.479947 6.682630
753 6.389558 2.293934 4.175974
754 7.055272 1.951597 3.455354
755 7.821831 1.552149 2.623287
756 6.568774 2.183003 3.973815
757 2.607910 4.185385 8.246379
758 2.921056 4.023864 7.907193
759 5.033533 2.932881 5.618457
760 5.697244 2.590411 4.899500
761 7.633169 1.604052 2.807893
762 3.384677 3.743046 7.386896
763 6.853708 1.960729 3.632443
764 3.503583 3.639441 7.239721
765 3.021583 3.865849 7.752146
766 1.903596 4.430032 8.957676
767 7.155472 1.765028 3.288171
768 3.631382 3.539986 7.086713
769 3.142892 3.786255 7.613348
770 7.439542 1.608086 2.975949
771 2.149027 4.268585 8.676681
772 4.298058 3.164214 6.350728
773 3.247788 3.675100 7.474923
774 4.096955 3.240045 6.556423
775 6.618200 1.958268 3.833646
776 2.698680 3.933775 8.059016
777 3.730724 3.406447 6.943325
778 5.979676 2.265322 4.515572
779 4.736968 2.869059 5.845420
780 4.467521 2.993066 6.130763
781 3.872587 3.293145 6.772217
782 5.378763 2.521638 5.143133
783 7.234172 1.578723 3.139569
784 6.169271 2.116212 4.287898
785 3.340769 3.545429 7.338681
786 5.142148 2.632107 5.394390
787 5.751304 2.320758 4.735820
788 2.833052 3.794069 7.882860
789 2.319800 4.043167 8.431992
790 6.909649 1.712395 3.476417
791 7.618057 1.352447 2.711470
792 6.360645 1.976793 4.062909
793 3.463309 3.428085 7.182411
794 3.096283 3.597928 7.571491
795 2.493389 3.903012 8.221959
796 7.446898 1.382450 2.871521
797 6.693761 1.737288 3.672662
798 2.957328 3.628211 7.704005
799 7.014795 1.557227 3.318641
800 3.186083 3.483770 7.444727
801 5.500152 2.286490 4.936628
802 3.563204 3.265471 7.025907
803 4.885526 2.590945 5.596899
804 7.269829 1.378678 3.021961
805 6.466619 1.755780 3.875791
806 3.284304 3.363004 7.307856
807 3.869045 3.045280 6.667484
808 4.055651 2.945008 6.463612
809 2.618555 3.662874 8.010041
810 1.849645 4.052103 8.839684
811 3.679617 3.121733 6.863423
812 2.788946 3.572246 7.824290
813 5.936790 1.963065 4.420979
814 5.759708 2.052586 4.611997
815 7.082947 1.371002 3.179133
816 3.388208 3.234439 7.162713
817 6.754669 1.526796 3.528825
818 3.012082 3.420085 7.566481
819 6.110648 1.848271 4.221743
820 2.057633 3.892347 8.591583
821 7.429391 1.167551 2.793116
822 4.201661 2.789138 6.270433
823 4.449220 2.660143 6.001720
824 5.065032 2.343881 5.335298
825 5.255287 2.235845 5.124916
826 6.254515 1.724126 4.044199
827 3.124379 3.292439 7.414530
828 6.891724 1.376552 3.345784
829 7.272869 1.182589 2.934088
830 6.543723 1.547143 3.718849
831 2.235651 3.723077 8.365087
832 2.415148 3.629409 8.170192
833 4.638797 2.499248 5.768938
834 5.547858 2.036498 4.786955
835 2.840852 3.372999 7.693073
836 3.208257 3.180930 7.294003
837 3.453339 3.037497 7.021140
838 7.108621 1.179371 3.073758
839 6.345243 1.528938 3.881403
840 2.643789 3.399859 7.874006
841 2.965943 3.226606 7.521981
842 6.719493 1.323825 3.470782
843 3.293767 3.055311 7.165939
844 3.719977 2.839266 6.705937
845 3.557039 2.914982 6.878803
846 4.804776 2.279222 5.530711
847 3.884278 2.733459 6.518816
848 6.941918 1.183741 3.218836
849 5.872955 1.717838 4.369178
850 5.685935 1.808577 4.569260
851 6.561819 1.353717 3.619203
852 5.312951 1.985604 4.966582
853 7.258423 1.000000 2.867103
854 6.022325 1.605654 4.192108
855 3.062674 3.101109 7.384333
856 2.440333 3.388677 8.043887
857 6.153409 1.503392 4.035057
858 7.107313 1.000000 2.996888
859 6.776675 1.164960 3.352593
860 5.085741 2.020403 5.176858
861 4.200236 2.460283 6.128665
862 6.381887 1.340355 3.767931
863 1.793810 3.660969 8.717569
864 3.144485 2.974052 7.258822
865 2.808560 3.140955 7.619912
866 5.460884 1.796856 4.757454
867 3.975209 2.543281 6.358025
868 4.406061 2.325094 5.893105
869 4.896034 2.074958 5.363515
870 2.015949 3.512586 8.462259
871 3.280435 2.867398 7.095682
872 6.956203 1.000000 3.126673
873 2.663688 3.170018 7.756976
874 2.219051 3.384916 8.232306
875 6.597822 1.159356 3.503769
876 4.594840 2.168226 5.662758
877 3.393760 2.759950 6.951630
878 2.893838 3.009272 7.489410
879 6.196299 1.323417 3.919964
880 3.544515 2.662730 6.779877
881 6.805093 1.000000 3.256458
882 5.706855 1.554876 4.440979
883 3.000970 2.909779 7.354137
884 5.859719 1.456949 4.267107
885 6.432613 1.166709 3.648861
886 2.472076 3.171128 7.922030
887 3.695487 2.532841 6.593732
888 5.543674 1.595714 4.598888
889 5.248956 1.733394 4.911880
890 6.004337 1.347076 4.095124
891 6.653983 1.000000 3.386243
892 3.099597 2.792280 7.218338
893 5.072311 1.781579 5.084549
894 6.256290 1.157893 3.796467
895 4.696727 1.925253 5.469601
896 6.502873 1.000000 3.516028
897 3.197948 2.667071 7.079423
898 2.688903 2.924012 7.628352
899 4.173944 2.163960 6.022402
900 4.873720 1.808400 5.266776
901 5.366195 1.551202 4.731967
902 4.364944 2.040768 5.804790
903 2.815553 2.821755 7.475113
904 6.074946 1.164463 3.955076
905 2.265609 3.089814 8.064004
906 3.968954 2.225093 6.225044
907 2.496961 2.959892 7.808809
908 3.776336 2.308689 6.426829
909 5.672886 1.344885 4.378847
910 6.351763 1.000000 3.645813
911 3.308548 2.539732 6.929062
912 3.449094 2.462744 6.774875
913 2.939265 2.718448 7.323940
914 5.819055 1.248815 4.211533
915 1.821532 3.258786 8.518883
916 2.040274 3.147043 8.282424
917 5.508335 1.380691 4.535745
918 4.495041 1.887769 5.626526
919 5.910738 1.148613 4.089219
920 6.200653 1.000000 3.775598
921 5.186686 1.511645 4.868943
922 3.026146 2.604005 7.199558
923 5.023647 1.557093 5.028735
924 3.548852 2.281327 6.610312
925 6.049543 1.000000 3.905383
926 5.335552 1.354095 4.672580
927 3.114545 2.468225 7.064594
928 2.760577 2.641547 7.443973
929 4.855717 1.572992 5.179880
930 5.688339 1.148854 4.280338
931 2.520355 2.745052 7.695300
932 4.689119 1.641939 5.352947
933 4.181993 1.891402 5.896976
934 2.302350 2.821003 7.915564
935 5.898433 1.000000 4.035168
936 2.877560 2.527118 7.293743
937 5.539952 1.176017 4.419595
938 3.994360 1.940677 6.079555
939 4.523258 1.670441 5.507794
940 3.341316 2.264198 6.781113
941 3.203917 2.331746 6.928492
942 5.167169 1.324397 4.804288
943 4.314484 1.734971 5.715164
944 3.808418 1.986851 6.259334
945 5.747323 1.000000 4.164953
946 5.393470 1.175982 4.545389
947 2.957541 2.404827 7.171876
948 2.588023 2.578962 7.564963
949 3.629826 2.049134 6.439805
950 5.001937 1.349375 4.957062
951 2.074923 2.828851 8.114309
952 5.596213 1.000000 4.294738
953 1.847078 2.888176 8.335795
954 5.236700 1.159467 4.672855
955 2.708249 2.438034 7.400427
956 4.837800 1.356047 5.100937
957 3.023439 2.252292 7.048953
958 2.331029 2.585962 7.788733
959 3.417631 2.034971 6.615895
960 4.679960 1.393078 5.252604
961 2.815856 2.335788 7.263547
962 4.087477 1.688034 5.889726
963 5.445103 1.000000 4.424523
964 4.361034 1.524139 5.583510
965 4.531217 1.433407 5.397892
966 5.074633 1.157718 4.811291
967 3.234686 2.081036 6.793053
968 3.906511 1.726288 6.061788
969 5.293993 1.000000 4.554308
970 3.083729 2.114137 6.937099
971 4.929230 1.169600 4.941340
972 2.884638 2.197076 7.144158
973 2.404969 2.426390 7.655844
974 4.172303 1.526637 5.746693
975 3.726870 1.744733 6.224097
976 2.543452 2.341175 7.499851
977 2.117098 2.554060 7.958602
978 3.566705 1.810517 6.390264
979 5.142883 1.000000 4.684093
980 4.786442 1.167847 5.063216
981 2.648181 2.213660 7.354456
982 2.754151 2.144457 7.233350
983 4.375606 1.323488 5.483748
984 4.650719 1.183956 5.186790
985 4.991773 1.000000 4.813878
986 3.380795 1.802821 6.546591
987 3.960721 1.505516 5.919232
988 3.185278 1.894516 6.754386
989 1.870644 2.546304 8.166905
990 2.883768 2.030514 7.072481
991 4.513600 1.203127 5.312893
992 4.209949 1.337920 5.632303
993 3.009711 1.935400 6.922954
994 4.840663 1.000000 4.943663
995 3.782664 1.519102 6.078069
996 2.186762 2.301729 7.789053
997 4.038799 1.341828 5.780999
998 2.347521 2.193197 7.603789
999 4.689553 1.000000 5.073449
1000 2.481441 2.114270 7.454449
1001 3.611928 1.537383 6.232660
1002 4.362296 1.149386 5.419478
1003 3.473048 1.591534 6.375486
1004 2.692447 1.953127 7.203153
1005 3.198337 1.684217 6.651730
1006 4.538443 1.000000 5.203234
1007 4.210268 1.160190 5.554749
1008 2.786827 1.875699 7.088425
1009 2.564672 1.980953 7.324996
1010 3.861532 1.322845 5.924995
1011 1.956254 2.281352 7.978170
1012 3.024831 1.717564 6.815249
1013 2.883684 1.781742 6.964383
1014 4.387333 1.000000 5.333019
1015 4.057622 1.163607 5.687339
1016 3.308204 1.536665 6.493209
1017 3.703093 1.331633 6.064897
1018 4.236223 1.000000 5.462804
1019 3.553739 1.343329 6.198259
1020 2.215490 2.016233 7.640240
1021 3.902719 1.158842 5.818311
1022 2.361726 1.918357 7.472084
1023 2.630742 1.761796 7.172957
1024 3.407372 1.364992 6.333390
1025 4.085113 1.000000 5.592589
1026 3.119979 1.486212 6.632933
1027 2.036060 2.034364 7.802232
1028 2.722615 1.672258 7.055117
1029 3.740493 1.152687 5.954966
1030 2.490194 1.774938 7.299384
1031 2.972319 1.515694 6.772575
1032 2.832922 1.571460 6.916547
1033 3.934003 1.000000 5.722374
1034 3.238674 1.334611 6.465071
1035 3.584652 1.155237 6.089923
1036 3.782893 1.000000 5.852159
1037 3.434833 1.165341 6.222993
1038 2.318378 1.709281 7.418405
1039 2.569038 1.570466 7.142760
1040 3.068082 1.308667 6.600308
1041 2.119016 1.777629 7.619351
1042 3.631783 1.000000 5.981944
1043 3.290270 1.166436 6.347631
1044 2.665426 1.477648 7.019616
1045 2.913969 1.327024 6.740654
1046 2.425122 1.553914 7.259168
1047 2.770486 1.363622 6.879801
1048 3.480673 1.000000 6.111729
1049 3.133228 1.151751 6.476126
1050 3.329563 1.000000 6.241514
1051 2.187668 1.565160 7.468003
1052 2.970403 1.145935 6.613444
1053 2.507333 1.379136 7.112563
1054 3.178453 1.000000 6.371299
1055 2.599861 1.288369 6.993626
1056 2.275074 1.437300 7.337336
1057 2.820722 1.160449 6.748312
1058 3.027343 1.000000 6.501084
1059 2.680841 1.163764 6.869894
1060 2.359535 1.313747 7.211073
1061 2.876233 1.000000 6.630869
1062 2.445629 1.187805 7.082366
1063 2.725123 1.000000 6.760654
1064 2.509644 1.094162 6.986668
1065 2.574013 1.000000 6.890439
1066 11.000000 2.607277 1.973848
1067 11.000000 2.707052 2.147210
1068 11.000000 2.806827 2.320572
1069 11.000000 2.906601 2.493935
1070 11.000000 3.006376 2.667297
1071 11.000000 3.106151 2.840659
1072 11.000000 3.205926 3.014022
1073 11.000000 3.305700 3.187384
1074 11.000000 3.405475 3.360746
1075 11.000000 3.505250 3.534108
1076 11.000000 3.605024 3.707471
1077 11.000000 3.704799 3.880833
1078 11.000000 3.804574 4.054195
1079 11.000000 3.904348 4.227557
1080 11.000000 4.004123 4.400920
1081 10.836804 2.575207 1.886463
1082 11.000000 4.103898 4.574282
1083 11.000000 4.203673 4.747644
1084 10.829023 2.682030 2.070562
1085 11.000000 4.303447 4.921007
1086 11.000000 4.403222 5.094369
1087 10.815522 2.784706 2.246347
1088 11.000000 4.502997 5.267731
1089 10.815863 2.886284 2.422909
1090 10.823763 2.982627 2.591841
1091 11.000000 4.602771 5.441093
1092 10.835033 3.172524 2.923980
1093 11.000000 4.702546 5.614456
1094 11.000000 4.802321 5.787818
1095 10.839755 3.367407 3.263513
1096 10.800282 3.078265 2.753460
1097 11.000000 4.902095 5.961180
1098 11.000000 5.001870 6.134542
1099 10.798690 3.277727 3.099725
1100 11.000000 5.101645 6.307905
1101 10.822382 3.567158 3.607217
1102 10.809477 3.471605 3.438686
1103 11.000000 5.201420 6.481267
1104 10.824796 3.671806 3.789516
1105 11.000000 5.301194 6.654629
1106 11.000000 5.400969 6.827991
1107 10.825080 3.867521 4.129633
1108 10.843492 4.048762 4.448118
1109 10.810498 3.773173 3.962870
1110 11.000000 5.500744 7.001354
1111 11.000000 5.600518 7.174716
1112 10.830778 4.153279 4.627254
1113 11.000000 5.700293 7.348078
1114 10.646055 2.537721 1.784324
1115 11.000000 5.800068 7.521441
1116 10.827350 4.260171 4.812317
1117 10.645201 2.642874 1.966866
1118 10.787048 3.960336 4.283524
1119 11.000000 5.899843 7.694803
1120 10.819333 4.367755 4.997693
1121 11.000000 5.999617 7.868165
1122 10.825558 4.469420 5.175547
1123 10.842999 4.692555 5.566637
1124 11.000000 6.099392 8.041527
1125 10.828122 4.576252 5.361669
1126 10.619717 2.748761 2.145904
1127 11.000000 6.199167 8.214890
1128 10.840442 4.806937 5.764883
1129 10.619889 2.868393 2.353803
1130 11.000000 6.298941 8.388252
1131 10.838737 4.920467 5.961816
1132 10.622610 2.987821 2.561840
1133 11.000000 6.398716 8.561614
1134 10.642248 3.201138 2.936296
1135 11.000000 6.498491 8.734976
1136 10.653375 3.401676 3.286897
1137 10.839067 5.105692 6.283715
1138 11.000000 6.598265 8.908339
1139 10.821145 5.023607 6.137613
1140 11.000000 6.698040 9.081701
1141 10.595116 3.104509 2.759257
1142 10.637512 3.633748 3.687055
1143 10.819775 5.283999 6.589787
1144 10.802495 5.196190 6.433864
1145 10.818775 5.370426 6.739764
1146 10.846723 5.722099 7.356230
1147 10.601023 3.530740 3.500994
1148 10.660832 4.079931 4.466838
1149 10.569555 3.307957 3.107795
1150 10.617275 3.747115 3.880108
1151 10.617381 3.869936 4.093534
1152 10.794920 5.461824 6.893942
1153 10.839366 5.860901 7.595977
1154 10.649886 4.199872 4.673116
1155 10.803074 5.629612 7.187062
1156 10.637786 4.320115 4.879695
1157 10.675016 4.657231 5.472669
1158 10.764928 5.545760 7.033965
1159 10.820323 6.060493 7.939080
1160 10.437143 2.655504 1.948446
1161 10.801491 5.966343 7.771837
1162 10.662353 4.773803 5.672762
1163 10.634026 4.536014 5.254099
1164 10.816654 6.175781 8.138686
1165 10.406425 2.526031 1.717522
1166 10.842568 6.475889 8.665163
1167 10.613585 4.437543 5.079036
1168 10.561271 3.990482 4.292101
1169 10.660620 4.891805 5.877459
1170 10.426649 2.802312 2.201494
1171 10.823068 6.372632 8.481967
1172 10.797916 6.272858 8.303725
1173 10.646966 5.014570 6.088118
1174 10.412015 2.936916 2.432535
1175 10.822953 6.663371 8.987114
1176 10.720100 5.798489 7.464395
1177 10.449544 3.446811 3.325776
1178 10.632113 5.144127 6.310346
1179 10.398305 3.070205 2.661470
1180 10.781977 6.575433 8.826368
1181 10.403760 3.212003 2.908907
1182 10.616327 5.282346 6.547445
1183 10.777899 6.759781 9.145889
1184 10.429168 3.664673 3.700367
1185 10.612579 5.393473 6.739804
1186 10.466997 4.133750 4.522745
1187 10.415986 3.801509 3.935568
1188 10.352387 3.351534 3.141381
1189 10.453157 4.263385 4.745306
1190 10.660122 6.129921 8.028635
1191 10.611768 5.709327 7.288456
1192 10.487522 4.616609 5.365713
1193 10.621254 5.912007 7.642460
1194 10.356173 3.561034 3.506129
1195 10.373445 3.923509 4.139294
1196 10.425169 4.394385 4.967493
1197 10.657287 6.476317 8.629961
1198 10.458904 4.732976 5.562353
1199 10.548734 5.612117 7.107320
1200 10.225469 2.748027 2.068142
1201 10.530709 5.501472 6.911573
1202 10.454693 4.850968 5.766552
1203 10.616988 6.366515 8.431356
1204 10.575114 6.028703 7.836271
1205 10.455274 4.971048 5.975307
1206 10.455185 5.098468 6.196687
1207 10.173063 2.633496 1.858972
1208 10.570314 6.251238 8.222004
1209 10.324735 4.055983 4.360022
1210 10.449987 5.241230 6.443733
1211 10.185069 2.875920 2.282524
1212 10.366970 4.518855 5.172474
1213 10.598749 6.692108 8.993548
1214 10.130650 2.512577 1.640643
1215 10.180222 3.011759 2.517608
1216 10.186450 3.156537 2.770373
1217 10.483535 5.824742 7.464115
1218 10.547527 6.590798 8.807582
1219 10.214838 3.734885 3.780782
1220 10.166300 3.304012 3.022707
1221 10.555206 6.821686 9.210247
1222 10.176362 3.467981 3.309562
1223 10.387322 5.379554 6.671918
1224 10.240608 4.204373 4.601535
1225 10.454742 6.155830 8.033807
1226 10.227754 4.331058 4.819161
1227 10.262456 4.649218 5.378707
1228 10.136849 3.622703 3.570731
1229 10.382262 5.952292 7.666091
1230 10.146210 3.857856 3.981135
1231 10.439572 6.486119 8.604754
1232 10.352001 5.728914 7.272092
1233 10.228801 4.789505 5.615932
1234 10.398525 6.359788 8.377285
1235 10.265052 5.188718 6.316612
1236 10.226241 4.922213 5.846020
1237 10.234213 5.050526 6.070517
1238 10.115459 3.993764 4.211314
1239 10.282740 5.495743 6.853512
1240 10.295290 5.617882 7.068167
1241 10.161909 4.450676 5.014227
1242 9.951667 2.774948 2.061799
1243 10.307074 6.084378 7.881008
1244 10.370805 6.753878 9.056653
1245 9.937776 2.929924 2.328380
1246 10.070101 4.141682 4.459527
1247 9.946013 3.086519 2.602069
1248 10.190564 5.317067 6.525172
1249 9.946164 3.242909 2.873831
1250 9.877941 2.640188 1.813345
1251 9.957511 3.406496 3.160271
1252 10.273012 6.240905 8.146372
1253 10.306281 6.634682 8.837027
1254 10.216984 5.856265 7.467174
1255 9.839539 2.498374 1.559488
1256 10.058993 4.577409 5.214464
1257 9.928430 3.567968 3.435192
1258 10.297341 6.893368 9.284770
1259 9.933455 3.745402 3.744466
1260 9.989631 4.317485 4.749380
1261 10.019805 4.720960 5.456287
1262 10.216697 6.507705 8.599021
1263 10.043700 5.163521 6.229888
1264 10.168922 6.376070 8.361032
1265 10.056525 5.444529 6.720639
1266 9.882659 3.903675 4.009615
1267 10.115597 6.008105 7.711332
1268 9.982393 4.881920 5.728702
1269 10.058654 5.744447 7.242170
1270 9.973178 5.021805 5.969970
1271 10.029718 5.599130 6.984064
1272 9.847708 4.059683 4.273904
1273 9.891238 4.467054 4.990173
1274 9.693439 2.870885 2.178396
1275 9.707042 3.019009 2.438405
1276 10.048133 6.160431 7.962917
1277 9.710212 3.170615 2.702441
1278 10.109946 6.776860 9.045978
1279 9.823526 4.219714 4.547273
1280 9.939915 5.289966 6.429456
1281 9.707173 3.331717 2.981772
1282 9.627899 2.749870 1.955412
1283 9.685985 3.491130 3.254648
1284 9.947290 5.914885 7.516707
1285 10.026231 6.630950 8.776212
1286 9.692366 3.664451 3.557037
1287 9.971852 6.304294 8.198086
1288 9.556758 2.624480 1.723740
1289 10.031029 6.967399 9.361735
1290 9.530352 2.483290 1.473295
1291 9.768875 4.649435 5.283327
1292 9.781081 4.809221 5.563329
1293 9.952923 6.477574 8.495494
1294 9.638339 3.828251 3.831164
1295 9.776357 5.146870 6.149090
1296 9.661936 4.358888 4.757745
1297 9.777605 5.415831 6.616662
1298 9.503757 3.107127 2.552075
1299 9.487632 2.964297 2.300774
1300 9.590310 3.999711 4.119765
1301 9.505094 3.258550 2.815437
1302 9.815799 6.076473 7.771962
1303 9.756049 5.554782 6.853912
1304 9.690388 4.983258 5.848131
1305 9.621359 4.521640 5.032660
1306 9.766162 5.833281 7.339778
1307 9.743530 5.700317 7.104357
1308 9.568202 4.173078 4.416708
1309 9.857009 6.864270 9.148784
1310 9.407222 2.852909 2.091633
1311 9.460544 3.412305 3.073950
1312 9.438792 3.576612 3.355219
1313 9.782723 6.733566 8.907269
1314 9.717282 6.233054 8.024915
1315 9.326246 2.743007 1.884964
1316 9.611637 5.299479 6.382298
1317 9.707828 6.404168 8.320397
1318 9.525101 4.825996 5.542815
1319 9.717799 6.580282 8.628336
1320 9.316371 3.052382 2.420599
1321 9.391900 3.731338 3.614963
1322 9.323212 3.194262 2.668449
1323 9.258701 2.620468 1.658945
1324 9.600007 5.983359 7.568308
1325 9.711068 7.013279 9.379379
1326 9.438145 4.669636 5.254263
1327 9.280015 3.329846 2.895650
1328 9.478756 5.153914 6.103593
1329 9.335555 3.912062 3.918047
1330 9.228133 2.952847 2.230534
1331 9.378771 4.307943 4.614289
1332 9.136036 2.514891 1.451702
1333 9.243270 3.488519 3.164222
1334 9.452748 5.484250 6.672519
1335 9.335770 4.485948 4.915238
1336 9.287321 4.105048 4.244011
1337 9.167413 3.134026 2.533561
1338 9.136224 2.856707 2.045657
1339 9.371388 4.995396 5.807332
1340 9.426124 5.654441 6.963066
1341 9.439966 5.835051 7.279569
1342 9.169371 3.636148 3.406396
1343 9.444483 6.148221 7.824590
1344 9.048547 2.750828 1.844679
1345 9.508096 6.875114 9.099935
1346 9.099226 3.251280 2.724064
1347 9.075329 3.046551 2.363704
1348 9.149193 3.806244 3.698030
1349 9.089662 3.389326 2.962069
1350 9.453568 6.704997 8.793771
1351 9.405858 6.344919 8.158866
1352 9.418649 6.516200 8.458956
1353 9.285614 5.353284 6.412535
1354 9.196487 4.828705 5.483769
1355 8.984238 2.965182 2.204650
1356 8.933269 2.645843 1.639898
1357 9.076581 3.984178 3.993109
1358 8.973527 3.157482 2.536701
1359 9.011676 3.509188 3.155204
1360 9.083638 4.268813 4.489041
1361 9.375963 7.061330 9.397858
1362 9.105547 4.644060 5.145297
1363 9.155905 5.185599 6.096012
1364 9.240770 6.000018 7.527560
1365 8.887546 2.874122 2.027672
1366 8.933339 3.328987 2.826901
1367 8.951023 3.734287 3.534555
1368 9.019239 4.437483 4.769618
1369 8.920492 3.608661 3.310352
1370 8.965290 4.137996 4.238782
1371 8.857143 3.245155 2.666456
1372 8.774093 2.543897 1.431882
1373 9.128217 5.786462 7.134662
1374 9.094024 5.573099 6.757303
1375 9.028433 5.005356 5.758102
1376 8.897080 3.879003 3.775540
1377 8.845241 3.436241 2.996167
1378 8.768528 2.773891 1.830425
1379 8.780347 3.000912 2.227176
1380 9.130730 6.270409 7.976026
1381 9.135470 6.630807 8.603150
1382 9.132000 6.823815 8.937836
1383 9.137664 6.983861 9.217020
1384 8.727091 3.346186 2.816771
1385 8.742641 3.537247 3.151763
1386 8.943817 5.388172 6.406845
1387 8.786268 4.015856 3.991829
1388 8.659205 2.908938 2.043866
1389 8.726231 3.674859 3.387686
1390 8.604844 2.670776 1.619504
1391 8.838600 4.816680 5.393443
1392 9.022884 6.471593 8.304668
1393 8.809262 4.595568 5.003559
1394 8.765621 4.306342 4.492553
1395 8.703210 3.791852 3.586498
1396 8.953111 6.143595 7.721222
1397 8.590487 3.039492 2.257376
1398 8.627557 3.443392 2.966360
1399 8.698693 4.157669 4.221243
1400 8.794955 5.197544 6.046740
1401 8.565099 3.152217 2.448314
1402 8.864257 5.960973 7.386671
1403 8.689391 4.452421 4.731581
1404 8.502262 2.813566 1.847706
1405 8.623519 3.909489 3.775437
1406 8.574841 3.612322 3.249655
1407 8.769714 5.757802 7.015313
1408 8.502592 3.528569 3.090114
1409 8.427261 2.949087 2.068628
1410 8.458334 3.254372 2.605100
1411 8.653036 5.011874 5.696599
1412 8.884953 7.131738 9.424934
1413 8.376253 2.575779 1.410096
1414 8.499520 3.722240 3.426028
1415 8.526276 4.036716 3.977632
1416 8.596239 4.705667 5.153533
1417 8.812062 6.730328 8.713328
1418 8.676799 5.569121 6.669446
1419 8.373685 3.079748 2.285262
1420 8.450630 3.824640 3.594467
1421 8.488550 4.280456 4.393821
1422 8.717265 6.360977 8.053177
1423 8.297281 2.724704 1.653536
1424 8.353339 3.352734 2.755638
1425 8.441850 4.155893 4.168327
1426 8.372396 3.631552 3.243791
1427 8.303397 3.195973 2.473570
1428 8.721740 6.960324 9.095432
1429 8.375948 3.950991 3.799518
1430 8.531176 5.379504 6.311728
1431 8.419722 4.417630 4.618813
1432 8.434190 4.565881 4.879212
1433 8.460703 4.870272 5.413247
1434 8.221584 2.863501 1.880016
1435 8.292876 3.731875 3.402679
1436 8.560595 6.180842 7.709789
1437 8.581661 6.579460 8.406490
1438 8.178844 2.997788 2.105052
1439 8.202606 3.301804 2.637901
1440 8.213103 3.434145 2.869886
1441 8.253924 3.868516 3.632541
1442 8.397315 5.191174 5.958528
1443 8.260344 4.071698 3.986823
1444 8.456872 5.958765 7.303800
1445 8.128101 3.130754 2.326242
1446 8.291651 4.726771 5.131111
1447 8.223204 4.198577 4.200075
1448 8.039771 2.645961 1.466758
1449 8.227148 4.325110 4.420695
1450 8.154554 3.801273 3.496425
1451 8.282574 5.027992 5.652731
1452 8.111826 3.544916 3.042706
1453 8.141437 3.987175 3.816892
1454 8.329127 5.749320 6.915099
1455 8.435483 6.833877 8.820190
1456 7.967491 2.790440 1.703774
1457 8.142777 4.472465 4.660362
1458 8.000541 3.232014 2.477438
1459 8.008068 3.359882 2.701074
1460 8.144407 4.601310 4.884550
1461 8.006123 3.466680 2.886261
1462 8.040888 3.901764 3.648981
1463 8.221809 5.544585 6.538543
1464 7.926989 2.932440 1.942647
1465 7.924970 3.076127 2.191916
1466 8.121833 4.875962 5.357390
1467 8.034031 4.109336 4.008314
1468 7.979393 3.635648 3.174663
1469 8.363436 7.140482 9.338950
1470 8.152183 5.355957 6.197287
1471 8.019873 4.239021 4.230900
1472 8.254464 6.426252 8.076808
1473 7.991742 4.360713 4.436887
1474 7.936759 4.000832 3.800912
1475 8.166100 6.172119 7.618099
1476 7.999315 4.740274 5.097858
1477 7.857331 3.552665 3.006796
1478 8.029967 5.172321 5.854502
1479 7.856972 3.723786 3.304056
1480 7.958969 5.018951 5.574242
1481 7.767803 3.308908 2.565891
1482 7.781583 3.436108 2.789579
1483 7.848874 4.200853 4.131407
1484 7.732443 3.176859 2.329591
1485 7.889374 4.591290 4.817663
1486 8.119908 6.693331 8.514762
1487 7.828885 4.087873 3.931222
1488 7.870007 4.461159 4.587797
1489 7.667397 2.723628 1.529465
1490 7.994903 5.933000 7.169407
1491 7.755902 3.811214 3.436358
1492 7.653994 3.029847 2.058932
1493 7.722110 3.641955 3.135709
1494 7.792902 4.317207 4.322717
1495 7.628213 2.873187 1.781728
1496 7.936336 5.704500 6.761018
1497 8.065400 6.965907 8.977799
1498 7.806699 4.875012 5.294601
1499 7.844432 5.322216 6.078956
1500 7.772944 4.723084 5.024072
1501 7.686464 4.175302 4.055502
1502 7.655978 3.905409 3.580639
1503 7.827199 5.503612 6.390794
1504 7.604401 3.533362 2.924186
1505 7.672495 4.406801 4.455030
1506 7.588406 3.731146 3.264742
1507 7.668688 4.540305 4.686260
1508 7.531396 3.401447 2.680816
1509 7.703130 5.033291 5.549524
1510 7.616359 4.272242 4.210338
1511 7.481993 3.264982 2.434119
1512 7.688075 5.181532 5.804178
1513 7.553825 4.004761 3.733448
1514 7.776917 6.135381 7.478761
1515 7.518538 3.826514 3.416891
1516 7.797840 6.362478 7.877409
1517 7.601410 4.654233 4.871162
1518 7.405783 3.128541 2.182262
1519 7.449023 3.635707 3.071872
1520 7.562159 4.797285 5.112104
1521 7.503997 4.356506 4.334951
1522 7.336425 2.968770 1.891198
1523 7.739357 6.601149 8.280763
1524 7.502360 4.487859 4.562864
1525 7.427492 3.939614 3.595743
1526 7.637301 5.850159 6.956091
1527 7.532918 4.931552 5.339727
1528 7.438285 4.103479 3.882560
1529 7.566760 5.363455 6.096739
1530 7.587465 5.654877 6.607113
1531 7.741032 7.150918 9.236333
1532 7.256273 2.809377 1.598697
1533 7.328237 3.509358 2.828902
1534 7.411276 4.596347 4.733695
1535 7.299156 3.744384 3.231626
1536 7.443248 5.080174 5.580565
1537 7.369838 4.438318 4.451075
1538 7.324924 4.046283 3.761186
1539 7.298208 3.856568 3.426366
1540 7.629813 6.875668 8.736499
1541 7.233693 3.372663 2.573046
1542 7.375500 4.711190 4.926298
1543 7.510628 6.033761 7.250531
1544 7.301242 4.179643 3.988309
1545 7.437565 5.513740 6.332800
1546 7.395328 5.234670 5.839711
1547 7.336540 4.843342 5.148359
1548 7.137692 3.235573 2.316223
1549 7.165512 3.625094 2.998428
1550 7.262518 4.535082 4.598385
1551 7.178066 3.971402 3.602586
1552 7.282574 4.971868 5.361209
1553 7.194211 4.281376 4.144311
1554 7.053664 3.076928 2.024269
1555 7.396885 6.263093 7.626937
1556 7.137486 4.097388 3.813618
1557 7.184478 4.634846 4.756589
1558 7.311754 5.788785 6.786293
1559 7.265979 5.381514 6.069763
1560 7.180636 4.759038 4.971632
1561 7.364520 6.472135 7.983876
1562 7.211925 5.130284 5.622756
1563 7.061804 3.863831 3.393122
1564 7.087902 4.203876 3.989026
1565 7.006947 3.488288 2.729960
1566 6.938353 2.922092 1.732864
1567 7.072312 4.364018 4.264254
1568 7.213641 5.652638 6.530699
1569 6.999638 3.749081 3.181679
1570 7.114875 4.875598 5.161401
1571 7.221688 5.954095 7.056053
1572 7.089224 5.023798 5.413928
1573 7.276013 6.711334 8.382322
1574 7.100608 5.262484 5.830862
1575 7.032574 4.707732 4.853761
1576 6.950191 4.011103 3.627358
1577 6.867517 3.355205 2.471673
1578 6.975667 4.467823 4.425870
1579 7.089556 5.523833 6.282822
1580 7.259170 7.093636 9.043319
1581 6.861262 3.617123 2.925552
1582 6.930638 4.272621 4.077963
1583 7.132218 6.151070 7.380946
1584 6.901955 4.136919 3.836610
1585 6.773178 3.188979 2.164546
1586 6.953296 4.807330 5.011435
1587 6.966488 4.945928 5.254815
1588 6.971969 5.135852 5.585877
1589 6.992908 5.398871 6.046946
1590 6.808261 3.908974 3.422371
1591 6.856190 4.388996 4.265725
1592 6.848748 4.564979 4.570058
1593 6.971161 5.838838 6.807185
1594 7.072711 6.909387 8.687005
1595 6.934710 5.699789 6.558510
1596 6.710380 3.781143 3.181270
1597 6.833230 4.886898 5.126394
1598 6.990893 6.370005 7.733935
1599 6.840751 5.046051 5.404388
1600 6.861083 5.232358 5.732048
1601 6.598816 3.042470 1.876154
1602 6.983020 6.583318 8.103047
1603 6.743110 4.481237 4.404059
1604 6.706148 4.204870 3.916690
1605 6.680943 4.057940 3.656503
1606 6.615247 3.489344 2.655801
1607 6.893859 6.018209 7.103851
1608 6.704120 4.329260 4.132430
1609 6.807007 5.336871 5.903151
1610 6.728203 4.661668 4.714672
1611 6.823578 5.595356 6.355493
1612 6.719204 4.975806 5.258754
1613 6.770150 5.482296 6.148682
1614 6.565159 3.658552 2.940090
1615 6.720401 5.143460 5.550291
1616 6.491445 3.310917 2.321759
1617 6.614284 4.574111 4.540438
1618 6.793290 6.207535 7.413301
1619 6.518427 3.923536 3.391444
1620 6.605140 4.762364 4.865760
1621 6.555940 4.441390 4.298512
1622 6.626496 5.252238 5.721079
1623 6.600617 5.067265 5.394661
1624 6.666428 5.764112 6.618225
1625 6.666068 5.906289 6.865193
1626 6.608582 5.394481 5.964756
1627 6.477710 4.316961 4.067134
1628 6.457288 4.182266 3.829134
1629 6.739058 6.781296 8.399711
1630 6.501678 4.675427 4.694633
1631 6.585110 5.628187 6.366274
1632 6.388078 4.050116 3.586093
1633 6.474739 4.859718 5.009619
1634 6.351544 3.811329 3.164102
1635 6.499710 5.165174 5.545204
1636 6.651491 6.562960 8.003356
1637 6.588970 6.072738 7.139447
1638 6.617250 6.385256 7.687946
1639 6.513045 5.522489 6.168639
1640 6.404477 4.551979 4.461280
1641 6.671144 7.023734 8.807781
1642 6.240785 3.169406 2.027249
1643 6.469457 5.317258 5.803586
1644 6.268061 3.634352 2.840402
1645 6.223959 3.460770 2.530241
1646 6.367158 4.780417 4.850958
1647 6.376980 4.957681 5.160867
1648 6.289945 4.435055 4.235900
1649 6.372609 5.245152 5.659511
1650 6.385122 5.422498 5.970084
1651 6.414815 5.730094 6.510304
1652 6.458905 6.234121 7.394623
1653 6.281326 4.668021 4.639014
1654 6.217664 4.302775 3.992035
1655 6.375429 5.852119 6.714686
1656 6.381127 5.970123 6.920827
1657 6.136696 3.972666 3.402749
1658 6.152991 4.157409 3.726909
1659 6.309626 5.634600 6.323972
1660 6.224268 4.892412 5.017833
1661 6.039601 3.279554 2.179605
1662 6.284291 5.517956 6.116383
1663 6.254386 5.344604 5.809376
1664 6.206746 5.017476 5.231736
1665 6.138567 4.558943 4.421791
1666 6.359753 6.723600 8.225874
1667 6.136459 4.792299 4.826846
1668 6.283868 6.113495 7.151072
1669 6.013410 3.805418 3.088232
1670 6.151634 5.109550 5.381027
1671 6.310359 6.543469 7.903308
1672 6.279761 6.384524 7.621198
1673 6.337994 6.928465 8.577614
1674 6.157070 5.438396 5.953463
1675 6.176884 5.768093 6.530168
1676 6.025128 4.691497 4.630101
1677 6.121821 5.592695 6.214726
1678 5.899284 3.625621 2.753686
1679 5.987976 4.441243 4.188067
1680 6.065641 5.202538 5.525914
1681 6.011870 4.953054 5.081994
1682 6.123887 6.008057 6.936833
1683 5.929632 4.303765 3.937876
1684 5.826738 3.396097 2.340806
1685 6.136286 6.245893 7.352487
1686 6.096140 5.889926 6.726193
1687 6.032015 5.519231 6.069656
1688 6.049306 5.693936 6.376566
1689 5.871263 4.126204 3.618033
1690 5.948595 5.062780 5.260370
1691 5.921620 4.851621 4.888241
1692 5.932820 5.289205 5.650732
1693 5.843611 4.580674 4.402326
1694 5.765110 3.971138 3.328005
1695 5.894606 5.169512 5.435348
1696 5.986614 6.139511 7.138607
1697 5.932207 5.803710 6.544586
1698 5.910282 5.619258 6.219840
1699 5.976742 6.366670 7.531389
1700 6.005323 6.656739 8.040941
1701 6.025164 6.839006 8.361485
1702 5.987707 6.505611 7.774932
1703 5.778229 4.731228 4.651236
1704 5.893832 6.007591 6.891392
1705 5.609582 3.514990 2.505257
1706 5.618842 3.800791 3.003644
1707 5.781663 5.362839 5.749350
1708 5.818835 5.714058 6.366817
1709 5.734240 4.995746 5.102311
1710 5.654481 4.293308 3.866324
1711 5.827779 5.905360 6.700947
1712 5.644343 4.460415 4.154712
1713 5.753705 5.459576 5.912008
1714 5.716127 5.249299 5.539355
1715 5.671112 4.874476 4.879352
1716 5.814637 6.263688 7.321005
1717 5.683080 5.120300 5.308802
1718 5.758879 6.120829 7.061965
1719 5.708892 5.802188 6.498617
1720 5.500232 4.156397 3.598512
1721 5.539798 4.626889 4.423684
1722 5.717469 6.413077 7.561723
1723 5.618238 5.550271 6.043313
1724 5.659680 6.011458 6.852683
1725 5.742513 6.758178 8.166206
1726 5.393596 3.633243 2.668824
1727 5.702517 6.550125 7.796947
1728 5.622615 5.888195 6.631319
1729 5.488049 4.778993 4.677931
1730 5.558930 5.440664 5.841361
1731 5.533042 5.330621 5.645136
1732 5.365743 4.002867 3.305656
1733 5.600136 6.219421 7.202475
1734 5.443173 4.962787 4.988575
1735 5.466808 5.209827 5.422401
1736 5.494919 5.643131 6.180736
1737 5.422567 5.081952 5.191630
1738 5.335577 4.364569 3.928274
1739 5.520189 6.119739 7.013764
1740 5.499939 5.953409 6.720830
1741 5.528779 6.331627 7.383592
1742 5.554197 6.658148 7.955866
1743 5.402439 5.543347 5.989416
1744 5.269726 4.543068 4.225647
1745 5.180936 3.816278 2.945597
1746 5.415824 6.032742 6.842355
1747 5.375270 5.735082 6.317293
1748 5.454385 6.453065 7.580163
1749 5.324806 5.424667 5.768143
1750 5.258593 4.880573 4.809915
1751 5.371055 6.238006 7.190324
1752 5.261034 5.300933 5.540779
1753 5.191751 4.713816 4.507201
1754 5.115298 4.225404 3.643735
1755 5.370915 6.560792 7.751149
1756 5.316135 6.119102 6.973069
1757 5.253559 5.653322 6.151618
1758 5.263816 5.818903 6.441311
1759 5.171893 5.167811 5.292181
1760 5.277365 6.355795 7.376809
1761 5.169746 5.539675 5.937892
1762 5.093888 5.028731 5.035392
1763 5.180582 5.909458 6.582507
1764 4.966283 4.001029 3.224965
1765 5.199728 6.197649 7.086964
1766 4.963284 4.449072 4.002874
1767 5.183488 6.461234 7.541802
1768 5.056514 5.413533 5.696748
1769 5.093923 5.759528 6.305185
1770 4.968343 4.868710 4.732993
1771 5.124901 6.286955 7.227619
1772 5.069316 5.995163 6.709835
1773 4.960757 5.284814 5.454516
1774 4.999021 5.658637 6.111472
1775 4.871494 4.650336 4.334770
1776 5.005986 5.869455 6.479127
1777 5.013489 6.370934 7.351921
1778 4.767937 4.171745 3.483109
1779 4.915638 5.535485 5.881313
1780 4.954166 6.093219 6.857872
1781 4.830800 5.151952 5.198451
1782 4.880930 5.987553 6.660064
1783 4.808322 5.778897 6.283431
1784 4.648355 4.361641 3.789862
1785 4.694005 4.825361 4.604448
1786 4.706285 5.023220 4.950619
1787 4.834989 6.192069 7.006507
1788 4.739340 5.404283 5.619143
1789 4.777538 5.889187 6.469091
1790 4.728584 5.667656 6.074676
1791 4.741926 6.098816 6.826421
1792 4.652158 5.534711 5.828851
1793 4.613102 5.275053 5.370109
1794 4.523291 4.560243 4.110677
1795 4.643038 5.999726 6.635063
1796 4.529879 5.886336 6.416090
1797 4.403121 4.751075 4.418940
1798 4.486855 5.772153 6.209347
1799 4.373702 4.962964 4.781398
1800 4.436421 5.638306 5.966998
1801 4.347344 5.152805 5.106141
1802 4.377488 5.481905 5.683811
1803 4.322071 5.334832 5.417515
1804 1.075017 1.000000 5.439642
1805 1.202664 1.000000 5.596817
1806 1.330311 1.000000 5.753991
1807 1.457958 1.000000 5.911165
1808 1.000000 1.097434 5.323958
1809 1.585605 1.000000 6.068339
1810 1.713252 1.000000 6.225514
1811 1.840899 1.000000 6.382688
1812 1.968546 1.000000 6.539862
1813 1.122733 1.179715 5.455393
1814 1.261738 1.154111 5.632680
1815 2.096193 1.000000 6.697037
1816 1.401827 1.153187 5.805395
1817 2.223840 1.000000 6.854211
1818 1.537602 1.156069 5.971889
1819 2.351487 1.000000 7.011385
1820 2.479134 1.000000 7.168560
1821 1.670307 1.163364 6.133545
1822 1.000000 1.293684 5.276999
1823 2.606781 1.000000 7.325734
1824 2.734428 1.000000 7.482908
1825 1.799896 1.185364 6.287846
1826 2.037243 1.151147 6.588284
1827 1.916276 1.183616 6.431565
1828 2.862075 1.000000 7.640082
1829 1.223132 1.332563 5.542444
1830 2.179646 1.149972 6.763909
1831 2.989722 1.000000 7.797257
1832 1.361775 1.324703 5.715038
1833 1.100588 1.383529 5.379357
1834 3.117368 1.000000 7.954431
1835 2.316698 1.158295 6.930672
1836 1.495991 1.333465 5.878205
1837 3.245015 1.000000 8.111605
1838 2.552804 1.137711 7.226319
1839 3.372662 1.000000 8.268780
1840 1.623684 1.345480 6.032561
1841 1.000000 1.489933 5.230041
1842 2.690450 1.176414 7.386546
1843 1.751961 1.366663 6.185443
1844 2.813291 1.163525 7.540886
1845 2.119827 1.307199 6.652631
1846 2.948419 1.155695 7.709145
1847 2.004600 1.364443 6.497052
1848 3.097439 1.153158 7.893244
1849 2.258638 1.331360 6.817770
1850 1.209121 1.538857 5.475829
1851 1.342013 1.515194 5.645125
1852 3.246809 1.147249 8.078580
1853 1.888521 1.414648 6.342110
1854 2.594012 1.294923 7.239443
1855 2.386924 1.346389 6.972136
1856 1.098860 1.597915 5.325932
1857 1.493829 1.523956 5.829961
1858 3.383770 1.160787 8.243984
1859 3.510203 1.139600 8.404732
1860 1.638210 1.545702 6.002538
1861 1.000000 1.686183 5.183083
1862 3.045137 1.300937 7.793483
1863 2.895353 1.333426 7.601277
1864 2.763958 1.367008 7.431452
1865 3.209624 1.292910 7.997940
1866 2.167993 1.501824 6.665369
1867 1.788587 1.584205 6.178488
1868 2.653220 1.440029 7.277626
1869 2.050938 1.579119 6.502742
1870 3.367907 1.323675 8.185476
1871 2.314548 1.531647 6.838690
1872 1.283563 1.739256 5.519540
1873 1.178675 1.767341 5.383670
1874 1.415664 1.722508 5.686206
1875 3.522934 1.321304 8.376931
1876 2.446570 1.532045 7.001156
1877 3.669903 1.301693 8.562590
1878 1.083634 1.821699 5.253637
1879 1.939891 1.669258 6.344440
1880 3.164959 1.450985 7.905120
1881 1.558620 1.768113 5.851319
1882 3.015010 1.489629 7.711237
1883 1.000000 1.882432 5.136124
1884 1.698669 1.786241 6.019426
1885 2.900671 1.564401 7.552558
1886 2.785070 1.587798 7.404618
1887 3.321729 1.486083 8.089755
1888 2.680278 1.623897 7.266948
1889 2.230669 1.717399 6.690961
1890 3.491670 1.499793 8.295726
1891 2.389283 1.715887 6.886628
1892 1.840897 1.850261 6.179236
1893 1.408209 1.935140 5.626149
1894 1.178597 1.982703 5.332041
1895 2.510498 1.725381 7.033611
1896 3.666411 1.500807 8.510645
1897 1.289796 1.982123 5.469102
1898 3.851498 1.486007 8.742088
1899 2.118758 1.826700 6.527010
1900 3.128481 1.654304 7.811553
1901 1.094975 2.050439 5.212868
1902 1.000000 2.078682 5.089166
1903 1.537393 2.011148 5.767029
1904 3.277563 1.680055 7.988958
1905 2.755921 1.800056 7.317936
1906 1.997630 1.947535 6.348949
1907 2.339048 1.884851 6.784343
1908 2.878873 1.787348 7.472371
1909 3.014165 1.766832 7.643868
1910 3.441045 1.691841 8.187438
1911 1.695173 2.042919 5.953704
1912 3.612498 1.702768 8.395936
1913 2.479234 1.932879 6.945465
1914 2.585365 1.913531 7.080775
1915 1.242960 2.195795 5.360305
1916 3.795362 1.703509 8.620924
1917 1.402464 2.178216 5.560912
1918 1.122169 2.234157 5.202393
1919 2.262584 2.016134 6.658778
1920 3.983263 1.692193 8.854997
1921 1.000000 2.274931 5.042208
1922 1.859913 2.124685 6.136987
1923 3.196449 1.898690 7.836767
1924 2.814994 1.979828 7.347659
1925 2.158472 2.125455 6.504424
1926 2.945546 1.983055 7.507639
1927 1.569188 2.255446 5.747723
1928 3.373018 1.912157 8.050957
1929 2.432062 2.101306 6.847079
1930 3.082950 1.987570 7.675747
1931 2.606766 2.103313 7.061716
1932 3.551008 1.925031 8.267040
1933 1.102198 2.411015 5.135484
1934 1.342179 2.374405 5.439737
1935 2.025719 2.252769 6.310500
1936 3.741121 1.928957 8.500191
1937 1.000000 2.471181 4.995249
1938 1.223046 2.436775 5.278122
1939 1.734314 2.340627 5.930664
1940 2.347138 2.262587 6.703920
1941 2.871578 2.161236 7.373925
1942 3.934550 1.955609 8.731986
1943 1.490315 2.436227 5.607348
1944 4.131872 1.924737 8.982340
1945 2.527310 2.240936 6.930951
1946 3.281803 2.129558 7.886623
1947 3.006181 2.187962 7.533269
1948 2.689530 2.274625 7.122634
1949 3.145884 2.193429 7.703980
1950 1.115882 2.597051 5.107819
1951 2.209993 2.386842 6.505318
1952 1.899560 2.465473 6.104262
1953 3.471414 2.167872 8.110927
1954 1.000000 2.667430 4.948291
1955 1.369170 2.604831 5.417836
1956 3.674945 2.163977 8.362471
1957 1.663265 2.556576 5.791507
1958 1.241393 2.655837 5.248297
1959 2.934955 2.344169 7.408190
1960 2.623043 2.409172 7.008573
1961 2.484509 2.439522 6.830731
1962 2.074103 2.550673 6.298794
1963 3.870785 2.214574 8.591506
1964 1.522954 2.680322 5.589130
1965 2.354367 2.535894 6.647425
1966 3.080031 2.396026 7.574417
1967 1.114889 2.782942 5.062116
1968 4.295744 2.181164 9.122761
1969 3.236482 2.388850 7.768775
1970 3.383145 2.366330 7.954753
1971 2.756439 2.488294 7.153893
1972 4.085634 2.236711 8.850758
1973 1.841196 2.699207 5.976469
1974 1.000000 2.863680 4.901332
1975 1.239046 2.855662 5.197593
1976 2.978318 2.525019 7.418310
1977 3.597572 2.404716 8.209597
1978 1.384761 2.840666 5.380603
1979 2.643430 2.601233 6.987719
1980 2.223802 2.698499 6.447749
1981 2.509352 2.680556 6.803646
1982 1.698765 2.848199 5.765440
1983 1.101874 2.968558 5.001676
1984 3.187810 2.581059 7.662853
1985 1.539154 2.911582 5.553742
1986 3.069338 2.626804 7.506030
1987 3.783765 2.490805 8.418260
1988 2.790011 2.688519 7.147322
1989 2.038029 2.836820 6.185906
1990 3.500466 2.560887 8.052659
1991 1.000000 3.059929 4.854374
1992 3.339130 2.621767 7.839435
1993 2.379661 2.812092 6.612481
1994 4.394854 2.421062 9.187394
1995 1.213954 3.044316 5.121556
1996 3.989827 2.528339 8.663008
1997 1.353571 3.058375 5.290106
1998 2.658625 2.805949 6.957445
1999 1.876006 3.018986 5.942816
2000 4.215532 2.564865 8.932183
2001 3.070487 2.788694 7.468708
2002 1.121793 3.180782 4.975423
2003 2.881218 2.845392 7.222091
2004 1.504645 3.113261 5.462993
2005 3.211720 2.786626 7.643106
2006 2.216228 2.983992 6.370111
2007 2.542055 2.939652 6.781918
2008 3.688947 2.722714 8.246018
2009 1.000000 3.256178 4.807416
2010 1.689597 3.122647 5.688482
2011 2.768119 2.922170 7.064459
2012 3.511143 2.782048 8.012887
2013 1.271578 3.246187 5.144206
2014 3.358067 2.851155 7.807866
2015 2.403199 3.070015 6.579749
2016 3.888890 2.808708 8.471635
2017 4.505596 2.689117 9.259614
2018 1.096282 3.357317 4.901769
2019 3.136522 2.962227 7.508496
2020 1.434672 3.297998 5.332630
2021 2.681968 3.073171 6.922247
2022 2.881349 3.035496 7.176764
2023 2.057831 3.201351 6.123064
2024 3.272274 3.008725 7.664524
2025 1.000000 3.452428 4.760457
2026 1.210009 3.411946 5.028733
2027 1.621672 3.344776 5.551694
2028 4.105118 2.864302 8.724579
2029 1.842143 3.304827 5.832723
2030 3.508712 3.002842 7.957062
2031 3.676701 2.979434 8.169512
2032 2.976509 3.118386 7.274103
2033 2.269055 3.276594 6.365144
2034 2.580101 3.216907 6.762424
2035 1.365270 3.465142 5.207180
2036 2.802357 3.192968 7.041819
2037 4.344726 2.930431 9.003789
2038 1.114886 3.558166 4.876618
2039 3.413522 3.112412 7.813636
2040 3.193079 3.156264 7.531706
2041 3.840710 3.069441 8.349923
2042 2.453392 3.339668 6.577030
2043 1.535809 3.536342 5.400131
2044 1.000000 3.648677 4.713499
2045 2.925293 3.281810 7.171935
2046 1.284732 3.612284 5.072803
2047 1.750233 3.541221 5.662988
2048 3.331998 3.240689 7.682559
2049 2.721158 3.363958 6.900923
2050 4.632387 2.996017 9.342299
2051 3.607846 3.206538 8.030388
2052 3.042682 3.324513 7.306261
2053 1.973653 3.538250 5.938800
2054 4.023815 3.146717 8.556893
2055 2.175556 3.523700 6.190890
2056 1.205567 3.712865 4.951260
2057 1.094194 3.766610 4.801263
2058 1.440700 3.708500 5.241827
2059 3.251734 3.356838 7.555936
2060 3.500503 3.324190 7.870062
2061 2.885678 3.446062 7.083854
2062 3.771977 3.292218 8.211984
2063 2.598084 3.521663 6.711645
2064 4.234559 3.209553 8.801351
2065 1.000000 3.844927 4.666541
2066 2.399057 3.579763 6.452677
2067 1.643499 3.742406 5.483424
2068 3.039059 3.493221 7.261432
2069 3.403960 3.444521 7.722395
2070 1.344281 3.866609 5.085272
2071 2.796272 3.596915 6.937671
2072 1.214978 3.910168 4.915636
2073 1.861064 3.794029 5.738965
2074 4.487165 3.288656 9.093462
2075 3.943869 3.408451 8.395826
2076 3.670508 3.466368 8.045373
2077 3.315660 3.546491 7.589269
2078 1.107658 3.978109 4.767234
2079 1.530567 3.923521 5.301032
2080 1.000000 4.041176 4.619582
2081 2.960297 3.661496 7.124186
2082 2.287267 3.801744 6.261912
2083 3.553052 3.563964 7.877394
2084 3.116221 3.650466 7.318817
2085 2.698938 3.743118 6.782839
2086 2.073033 3.869849 5.981825
2087 4.130258 3.485404 8.606917
2088 2.533575 3.807727 6.563764
2089 1.728348 3.993834 5.527740
2090 1.258602 4.090135 4.926289
2091 3.836402 3.595893 8.218650
2092 3.455666 3.671204 7.731820
2093 1.418014 4.073751 5.126497
2094 4.735646 3.434781 9.364457
2095 1.116029 4.162753 4.733360
2096 4.354434 3.537038 8.870595
2097 3.367864 3.747000 7.605572
2098 2.872855 3.848845 6.971688
2099 1.000000 4.237426 4.572624
2100 3.046811 3.841137 7.187727
2101 3.697199 3.725279 8.016286
2102 3.176451 3.834965 7.348832
2103 1.917029 4.111471 5.731919
2104 1.617856 4.173086 5.348798
2105 2.435565 4.021142 6.392016
2106 3.573109 3.816404 7.841687
2107 2.721687 3.985800 6.752781
2108 4.020627 3.737876 8.411515
2109 1.218438 4.300037 4.826609
2110 1.345747 4.284468 4.987093
2111 3.451524 3.914221 7.668572
2112 2.260303 4.147603 6.145953
2113 1.110901 4.373940 4.676513
2114 1.501149 4.298684 5.175042
2115 4.601115 3.705857 9.133944
2116 3.855570 3.860779 8.178869
2117 3.001513 4.027051 7.087466
2118 4.228231 3.792607 8.654047
2119 1.000000 4.433675 4.525665
2120 3.247602 4.005685 7.395593
2121 2.598280 4.156463 6.559991
2122 2.085943 4.258955 5.904616
2123 1.797387 4.316403 5.535565
2124 3.141935 4.064632 7.251378
2125 2.885216 4.124463 6.920959
2126 3.727922 3.977701 7.993717
2127 3.590912 4.025569 7.813560
2128 4.442090 3.876598 8.897278
2129 1.265578 4.500555 4.836674
2130 1.429788 4.493416 5.040577
2131 1.123871 4.562075 4.647467
2132 1.632736 4.477220 5.294347
2133 3.990896 4.024117 8.306416
2134 3.500426 4.120308 7.679473
2135 4.840274 3.879364 9.386908
2136 2.775675 4.281269 6.748558
2137 1.000000 4.629925 4.478707
2138 3.294398 4.190410 7.409013
2139 2.438772 4.364175 6.313885
2140 4.164530 4.037049 8.517121
2141 3.060085 4.259809 7.103892
2142 1.995779 4.514314 5.732493
2143 3.864325 4.154780 8.119301
2144 3.198117 4.290385 7.266538
2145 3.690005 4.197250 7.894495
2146 1.247121 4.709186 4.764027
2147 1.795757 4.604675 5.464580
2148 2.958910 4.395205 6.946917
2149 1.110866 4.755233 4.585234
2150 1.392231 4.700725 4.944728
2151 2.641142 4.468483 6.538109
2152 4.379963 4.131832 8.759708
2153 1.560935 4.681110 5.157151
2154 3.574497 4.293730 7.729183
2155 2.260361 4.554225 6.048729
2156 1.000000 4.826174 4.431749
2157 3.359428 4.368159 7.446554
2158 4.636062 4.129538 9.075597
2159 4.061899 4.278981 8.332859
2160 3.815034 4.349963 8.011905
2161 2.834297 4.552078 6.755942
2162 3.271024 4.482607 7.310316
2163 3.134740 4.512981 7.135239
2164 1.230053 4.906487 4.695800
2165 3.705137 4.434902 7.856263
2166 4.251647 4.330496 8.554174
2167 1.107170 4.961143 4.531414
2168 1.712613 4.846570 5.304323
2169 2.505773 4.695327 6.317146
2170 1.381903 4.919635 4.879631
2171 3.957477 4.429746 8.168208
2172 3.611861 4.505783 7.724449
2173 1.932098 4.835432 5.577245
2174 1.000000 5.022424 4.384790
2175 3.415352 4.558747 7.469811
2176 1.530490 4.928127 5.060556
2177 3.022994 4.657967 6.962951
2178 2.147611 4.835315 5.842638
2179 4.873557 4.330910 9.319845
2180 4.484578 4.422527 8.818966
2181 2.713426 4.780747 6.552395
2182 3.293738 4.681366 7.290725
2183 3.829208 4.589834 7.971962
2184 4.137577 4.556178 8.359716
2185 1.217511 5.124232 4.628255
2186 1.347142 5.104914 4.792495
2187 2.898939 4.818762 6.771724
2188 1.102269 5.173458 4.474577
2189 3.704677 4.673224 7.798670
2190 3.441632 4.730976 7.460959
2191 2.404788 4.935508 6.135332
2192 3.176472 4.785870 7.121327
2193 1.000000 5.218673 4.337832
2194 4.687011 4.515498 9.045979
2195 3.978745 4.667690 8.137461
2196 4.325177 4.600975 8.579993
2197 1.649088 5.127061 5.158988
2198 1.840684 5.104509 5.400300
2199 1.492049 5.206234 4.946678
2200 2.047431 5.148601 5.644322
2201 3.050031 4.955340 6.925087
2202 3.349004 4.898615 7.306792
2203 3.507508 4.868750 7.509107
2204 3.856310 4.813965 7.951703
2205 2.647766 5.052163 6.406603
2206 1.217171 5.341058 4.575955
2207 1.349804 5.325250 4.743051
2208 3.744284 4.866402 7.801216
2209 1.108686 5.387849 4.431179
2210 4.135035 4.801149 8.297969
2211 1.000000 5.414922 4.290874
2212 2.861617 5.081224 6.662968
2213 2.275949 5.202579 5.912785
2214 4.499078 4.772494 8.753080
2215 3.231445 5.031754 7.130182
2216 4.001721 4.911653 8.107376
2217 4.296156 4.860770 8.482094
2218 1.756946 5.369000 5.233904
2219 3.576362 5.031659 7.554907
2220 4.906342 4.775703 9.253785
2221 3.456962 5.059473 7.401232
2222 1.603911 5.437144 5.029164
2223 4.703034 4.848088 8.986127
2224 1.449191 5.498648 4.823938
2225 3.802237 5.055109 7.827421
2226 1.282543 5.547428 4.607068
2227 1.133672 5.577654 4.416529
2228 2.535812 5.305367 6.208165
2229 3.113211 5.194287 6.945707
2230 1.000000 5.611172 4.243915
2231 3.913949 5.046584 7.967015
2232 1.937740 5.439166 5.439730
2233 3.360489 5.178228 7.254028
2234 4.145206 5.050420 8.250848
2235 2.972885 5.315925 6.743815
2236 3.620633 5.199993 7.569141
2237 2.149954 5.491248 5.688572
2238 2.776943 5.392350 6.484261
2239 4.444660 5.078892 8.612759
2240 3.513960 5.277102 7.419341
2241 4.033348 5.180631 8.081958
2242 4.286776 5.138343 8.404128
2243 3.266925 5.337794 7.100640
2244 1.120259 5.770797 4.353798
2245 1.000000 5.807421 4.196957
2246 4.627708 5.102821 8.832424
2247 1.259276 5.764911 4.526380
2248 3.885876 5.254516 7.882694
2249 1.416385 5.739306 4.725959
2250 1.784311 5.669818 5.195620
2251 1.590572 5.711651 4.947056
2252 2.389449 5.584670 5.961114
2253 3.672166 5.376215 7.590428
2254 4.871245 5.150401 9.120911
2255 3.420256 5.439697 7.265056
2256 3.144723 5.496028 6.912308
2257 4.183647 5.327261 8.231939
2258 2.016514 5.765806 5.458569
2259 4.028690 5.380798 8.028327
2260 1.103176 5.964742 4.286355
2261 2.639379 5.667675 6.248996
2262 3.571732 5.495842 7.438137
2263 1.000000 6.003671 4.149998
2264 2.979072 5.620100 6.678651
2265 4.369829 5.370781 8.450775
2266 1.227129 5.983646 4.434458
2267 3.931909 5.464709 7.889081
2268 1.375722 5.978703 4.618606
2269 4.543977 5.375531 8.664071
2270 3.311843 5.628965 7.086278
2271 1.537026 5.980814 4.816718
2272 3.730830 5.556121 7.619614
2273 2.236007 5.854051 5.707719
2274 1.711765 5.957311 5.037502
2275 4.751388 5.377042 8.919099
2276 2.829418 5.778483 6.456481
2277 1.903105 5.969289 5.270237
2278 4.123898 5.544377 8.106417
2279 3.471125 5.686170 7.268716
2280 1.135958 6.163084 4.279261
2281 1.000000 6.199920 4.103040
2282 4.276942 5.563617 8.290260
2283 3.631921 5.692840 7.465112
2284 3.165730 5.790658 6.867676
2285 4.014328 5.643975 7.947670
2286 1.310303 6.194290 4.486470
2287 2.525173 5.965123 6.037199
2288 3.786859 5.741073 7.644350
2289 4.455497 5.637376 8.492470
2290 1.476434 6.233174 4.681725
2291 4.630943 5.654735 8.704346
2292 3.355029 5.908329 7.072607
2293 3.002034 5.979436 6.620942
2294 4.826442 5.628712 8.951294
2295 1.081001 6.356553 4.165300
2296 4.182683 5.754233 8.128586
2297 1.664422 6.244385 4.910517
2298 2.096525 6.164526 5.461683
2299 1.229775 6.344177 4.351449
2300 3.545026 5.894983 7.309747
2301 1.856186 6.243292 5.146901
2302 3.693732 5.891248 7.493746
2303 4.070235 5.837405 7.970226
2304 2.335535 6.176680 5.753073
2305 2.762590 6.107733 6.295411
2306 4.346050 5.801387 8.318461
2307 3.857005 5.916034 7.688857
2308 3.194664 6.083276 6.833286
2309 1.393337 6.454344 4.526486
2310 3.487826 6.099500 7.190380
2311 1.225745 6.539981 4.299635
2312 3.779154 6.050991 7.560705
2313 1.595691 6.483651 4.768635
2314 4.540280 5.913177 8.530871
2315 4.235939 5.977037 8.140850
2316 4.120340 6.026061 7.986779
2317 4.743112 5.913994 8.780427
2318 3.648311 6.135175 7.379452
2319 2.020488 6.465302 5.296088
2320 2.986395 6.286060 6.528317
2321 4.390869 6.015762 8.322352
2322 3.919534 6.116692 7.717836
2323 3.358335 6.239063 6.997540
2324 2.569265 6.395235 5.988573
2325 1.810932 6.547124 5.018479
2326 2.291659 6.497851 5.622197
2327 1.366256 6.718045 4.430042
2328 3.810977 6.244965 7.553475
2329 1.519177 6.695500 4.623731
2330 3.198687 6.395908 6.763433
2331 4.188370 6.206953 8.027262
2332 3.539904 6.354403 7.193511
2333 4.322653 6.203416 8.193455
2334 4.496112 6.189567 8.410351
2335 4.672210 6.156726 8.635043
2336 2.815188 6.520924 6.261309
2337 3.968544 6.304461 7.733255
2338 3.696382 6.382877 7.379373
2339 1.713213 6.783724 4.841541
2340 2.113130 6.742170 5.343911
2341 3.864065 6.435017 7.573368
2342 3.413579 6.546444 6.992013
2343 4.258977 6.399120 8.068220
2344 3.054726 6.640440 6.527659
2345 4.420160 6.396660 8.267277
2346 4.027107 6.484924 7.762183
2347 1.925554 6.895863 5.076169
2348 4.605592 6.384795 8.498443
2349 1.568940 6.974899 4.618151
2350 2.363915 6.838828 5.629579
2351 3.598184 6.619447 7.201853
2352 2.627169 6.814427 5.959568
2353 3.761627 6.612103 7.404861
2354 3.280886 6.714244 6.788475
2355 3.925001 6.615826 7.605137
2356 4.324640 6.582712 8.105143
2357 1.743345 7.113000 4.799855
2358 4.089673 6.662548 7.796721
2359 4.482740 6.600769 8.295495
2360 2.899501 6.919171 6.269833
2361 2.177488 7.081976 5.341848
2362 3.512555 6.868359 7.036857
2363 3.993730 6.787346 7.648722
2364 3.846066 6.826660 7.457494
2365 3.694806 6.871261 7.260572
2366 3.143444 6.981461 6.555300
2367 4.382229 6.777469 8.129453
2368 1.925497 7.257234 4.989630
2369 4.155076 6.841371 7.834463
2370 3.361692 7.002800 6.818928
2371 2.482549 7.175789 5.695028
2372 4.067488 6.953636 7.699752
2373 3.940817 7.020649 7.527745
2374 2.782615 7.250882 6.046537
2375 4.257670 6.996443 7.923685
2376 2.120610 7.411732 5.192909
2377 3.813360 7.110728 7.349250
2378 3.661819 7.152526 7.152654
2379 4.166328 7.082877 7.790532
2380 3.060277 7.305300 6.375407
2381 3.507381 7.229502 6.944072
2382 2.299110 7.481773 5.395941
2383 3.296403 7.303163 6.666665
2384 4.055498 7.187751 7.628970
2385 2.493855 7.558187 5.617449
2386 3.937225 7.299668 7.456558
2387 3.804538 7.425225 7.263135
2388 2.701349 7.639605 5.853459
2389 3.654746 7.487128 7.063881
2390 2.995364 7.641961 6.214923
2391 3.477852 7.560230 6.828576
2392 3.274666 7.644199 6.558297
2393 1.000000 11.000000 11.000000
2394 1.000000 11.000000 10.800000
2395 1.000000 11.000000 10.600000
2396 1.000000 11.000000 10.400000
2397 1.000000 11.000000 10.200000
2398 1.000000 11.000000 10.000000
2399 1.000000 11.000000 9.800000
2400 1.000000 11.000000 9.600000
2401 1.000000 11.000000 9.400000
2402 1.000000 11.000000 9.200000
2403 1.000000 11.000000 9.000000
2404 1.000000 11.000000 8.800000
2405 1.000000 11.000000 8.600000
2406 1.000000 11.000000 8.400000
2407 1.000000 11.000000 8.200000
2408 1.000000 11.000000 8.000000
2409 1.000000 11.000000 7.800000
2410 1.000000 11.000000 7.600000
2411 1.000000 11.000000 7.400000
2412 1.000000 11.000000 7.200000
2413 1.000000 11.000000 7.000000
2414 1.000000 11.000000 6.800000
2415 1.000000 11.000000 6.600000
2416 1.000000 11.000000 6.400000
2417 1.000000 11.000000 6.200000
2418 1.000000 11.000000 6.000000
2419 1.000000 11.000000 5.800000
2420 1.000000 11.000000 5.600000
2421 1.000000 11.000000 5.400000
2422 1.000000 11.000000 5.200000
2423 1.000000 11.000000 5.000000
2424 1.000000 11.000000 4.800000
2425 1.000000 11.000000 4.600000
2426 1.000000 11.000000 4.400000
2427 1.000000 11.000000 4.200000
2428 1.000000 11.000000 4.000000
2429 1.000000 11.000000 3.800000
2430 1.000000 11.000000 3.600000
2431 1.000000 11.000000 3.400000
2432 1.000000 11.000000 3.200000
2433 1.000000 11.000000 3.000000
2434 1.000000 11.000000 2.800000
2435 1.000000 11.000000 2.600000
2436 1.000000 11.000000 2.400000
2437 1.000000 11.000000 2.200000
2438 1.000000 11.000000 2.000000
2439 1.000000 11.000000 1.800000
2440 1.000000 11.000000 1.600000
2441 1.000000 11.000000 1.400000
2442 1.000000 11.000000 1.200000
2443 1.000000 11.000000 1.000000
2444 1.000000 10.864793 10.279545
2445 1.000000 10.859073 10.668328
2446 1.000000 10.855207 8.480001
2447 1.000000 10.850710 1.154037
2448 1.000000 10.847547 3.107304
2449 1.000000 10.847525 4.228816
2450 1.000000 10.846188 9.483590
2451 1.000000 10.844783 1.511219
2452 1.000000 10.843151 6.115810
2453 1.000000 10.840332 9.695792
2454 1.000000 10.838951 2.873102
2455 1.000000 10.838607 5.521203
2456 1.000000 10.838497 6.486788
2457 1.000000 10.838410 10.854277
2458 1.000000 10.837302 1.712228
2459 1.000000 10.836928 7.308845
2460 1.000000 10.836752 7.904389
2461 1.000000 10.836214 5.299837
2462 1.000000 10.836020 8.679854
2463 1.000000 10.835052 9.075645
2464 1.000000 10.834671 8.095130
2465 1.000000 10.834484 9.279181
2466 1.000000 10.832746 6.886671
2467 1.000000 10.830554 8.877628
2468 1.000000 10.829457 9.890320
2469 1.000000 10.828974 3.314359
2470 1.000000 10.828830 7.095887
2471 1.000000 10.828015 2.683811
2472 1.000000 10.825918 1.911691
2473 1.000000 10.825656 2.474949
2474 1.000000 10.824863 7.519067
2475 1.000000 10.824502 10.471952
2476 1.000000 10.821241 4.715062
2477 1.000000 10.819665 3.516729
2478 1.000000 10.818811 3.880916
2479 1.000000 10.818187 5.724651
2480 1.000000 10.816957 7.712271
2481 1.000000 10.816916 3.705027
2482 1.000000 10.815907 6.683314
2483 1.000000 10.814488 1.336107
2484 1.000000 10.813989 4.523255
2485 1.000000 10.813217 5.915192
2486 1.000000 10.811421 2.103540
2487 1.000000 10.811147 4.917786
2488 1.000000 10.810214 10.081117
2489 1.000000 10.810175 8.286548
2490 1.000000 10.807269 2.288221
2491 1.000000 10.802916 5.099213
2492 1.000000 10.801299 4.059306
2493 1.000000 10.800000 11.000000
2494 1.000000 10.800000 1.000000
2495 1.000000 10.792772 6.301986
2496 1.000000 10.765013 4.358713
2497 1.000000 10.703703 2.984065
2498 1.000000 10.700272 10.268998
2499 1.000000 10.695446 10.653764
2500 1.000000 10.686192 8.488975
2501 1.000000 10.675566 1.555705
2502 1.000000 10.671746 9.563209
2503 1.000000 10.670576 5.427480
2504 1.000000 10.662391 1.168256
2505 1.000000 10.655399 6.085826
2506 1.000000 10.655134 8.711302
2507 1.000000 10.653879 7.896927
2508 1.000000 10.653860 9.362955
2509 1.000000 10.652611 2.583568
2510 1.000000 10.652485 9.143676
2511 1.000000 10.652152 7.213473
2512 1.000000 10.651200 10.837683
2513 1.000000 10.651101 3.201288
2514 1.000000 10.650090 8.097670
2515 1.000000 10.648820 7.428543
2516 1.000000 10.648658 1.776998
2517 1.000000 10.645235 6.513184
2518 1.000000 10.643685 8.931151
2519 1.000000 10.643341 6.976589
2520 1.000000 10.636110 9.746153
2521 1.000000 10.635418 3.427671
2522 1.000000 10.632559 5.639734
2523 1.000000 10.630370 6.771847
2524 1.000000 10.626998 9.933183
2525 1.000000 10.626855 4.823420
2526 1.000000 10.623879 5.222029
2527 1.000000 10.619964 3.667901
2528 1.000000 10.619493 7.660435
2529 1.000000 10.616929 10.456971
2530 1.000000 10.613935 1.987479
2531 1.000000 10.611800 4.158769
2532 1.000000 10.611374 2.782000
2533 1.000000 10.610089 3.907207
2534 1.000000 10.606392 1.367814
2535 1.000000 10.605886 4.613926
2536 1.000000 10.600000 11.000000
2537 1.000000 10.600000 1.000000
2538 1.000000 10.599099 5.857182
2539 1.000000 10.596288 2.379208
2540 1.000000 10.589648 8.295400
2541 1.000000 10.583617 2.187142
2542 1.000000 10.574012 4.398571
2543 1.000000 10.571787 6.291786
2544 1.000000 10.567624 10.112572
2545 1.000000 10.560082 5.014997
2546 1.000000 10.505649 10.650371
2547 1.000000 10.503653 3.005442
2548 1.000000 10.493862 8.533705
2549 1.000000 10.482888 1.603956
2550 1.000000 10.475363 1.176038
2551 1.000000 10.475152 10.295089
2552 1.000000 10.467827 6.662187
2553 1.000000 10.467707 9.525519
2554 1.000000 10.465141 7.834396
2555 1.000000 10.464144 5.435702
2556 1.000000 10.464041 7.094977
2557 1.000000 10.463806 9.269556
2558 1.000000 10.459955 10.844457
2559 1.000000 10.455977 8.783195
2560 1.000000 10.444459 7.523395
2561 1.000000 10.443643 3.255800
2562 1.000000 10.442540 9.030855
2563 1.000000 10.441506 2.558177
2564 1.000000 10.438274 6.063010
2565 1.000000 10.435822 8.079120
2566 1.000000 10.433748 3.502455
2567 1.000000 10.428294 1.835192
2568 1.000000 10.426690 9.754080
2569 1.000000 10.424434 7.314196
2570 1.000000 10.409082 5.659527
2571 1.000000 10.402192 4.784080
2572 1.000000 10.401590 3.761433
2573 1.000000 10.400462 4.021430
2574 1.000000 10.400000 11.000000
2575 1.000000 10.400000 1.000000
2576 1.000000 10.398144 1.378568
2577 1.000000 10.396723 6.455010
2578 1.000000 10.393094 5.216929
2579 1.000000 10.386721 6.901476
2580 1.000000 10.383808 9.984274
2581 1.000000 10.382906 4.261797
2582 1.000000 10.376952 2.790762
2583 1.000000 10.370178 4.537007
2584 1.000000 10.367032 2.071483
2585 1.000000 10.366491 8.329479
2586 1.000000 10.355742 10.478726
2587 1.000000 10.347549 5.870199
2588 1.000000 10.340067 2.312818
2589 1.000000 10.315066 10.680620
2590 1.000000 10.312111 6.232394
2591 1.000000 10.305137 7.661768
2592 1.000000 10.290491 4.984893
2593 1.000000 10.288425 10.213836
2594 1.000000 10.284398 8.595841
2595 1.000000 10.283637 1.177758
2596 1.000000 10.281425 3.051140
2597 1.000000 10.270570 1.596522
2598 1.000000 10.262765 9.366729
2599 1.000000 10.253858 10.851209
2600 1.000000 10.242249 8.866359
2601 1.000000 10.239066 6.709644
2602 1.000000 10.232364 7.906789
2603 1.000000 10.228608 9.130697
2604 1.000000 10.224445 7.153231
2605 1.000000 10.219159 9.573768
2606 1.000000 10.218239 5.459824
2607 1.000000 10.212097 3.568886
2608 1.000000 10.210972 2.562774
2609 1.000000 10.208905 3.316555
2610 1.000000 10.200000 11.000000
2611 1.000000 10.200000 1.000000
2612 1.000000 10.194948 1.847313
2613 1.000000 10.185508 1.377757
2614 1.000000 10.183682 8.156765
2615 1.000000 10.182934 9.802330
2616 1.000000 10.174937 3.882763
2617 1.000000 10.174631 7.412180
2618 1.000000 10.163978 4.390110
2619 1.000000 10.152787 10.454656
2620 1.000000 10.149541 4.697359
2621 1.000000 10.147374 6.484194
2622 1.000000 10.142977 5.224929
2623 1.000000 10.136670 5.702455
2624 1.000000 10.135524 10.651206
2625 1.000000 10.132907 4.125796
2626 1.000000 10.132319 5.991368
2627 1.000000 10.126187 2.837589
2628 1.000000 10.123332 10.035641
2629 1.000000 10.111677 8.414576
2630 1.000000 10.105575 2.100237
2631 1.000000 10.100345 6.944375
2632 1.000000 10.086091 1.178513
2633 1.000000 10.070874 6.243167
2634 1.000000 10.063383 2.333020
2635 1.000000 10.058166 7.671619
2636 1.000000 10.057792 10.851293
2637 1.000000 10.053124 1.611715
2638 1.000000 10.047295 8.699078
2639 1.000000 10.034026 10.283669
2640 1.000000 10.028803 4.936245
2641 1.000000 10.023936 3.696660
2642 1.000000 10.019476 3.112166
2643 1.000000 10.013474 9.000336
2644 1.000000 10.012404 9.308540
2645 1.000000 10.000000 11.000000
2646 1.000000 10.000000 1.000000
2647 1.000000 9.979713 1.388722
2648 1.000000 9.976648 7.954449
2649 1.000000 9.971347 9.576858
2650 1.000000 9.963393 6.709573
2651 1.000000 9.950352 2.620290
2652 1.000000 9.946343 10.699937
2653 1.000000 9.941373 7.194237
2654 1.000000 9.938582 4.491120
2655 1.000000 9.936073 3.398163
2656 1.000000 9.932826 1.861744
2657 1.000000 9.925777 5.484233
2658 1.000000 9.916866 10.514095
2659 1.000000 9.912997 9.846204
2660 1.000000 9.901763 8.221840
2661 1.000000 9.898461 5.190371
2662 1.000000 9.890661 1.182530
2663 1.000000 9.889789 5.802037
2664 1.000000 9.884017 7.440344
2665 1.000000 9.868862 4.227263
2666 1.000000 9.858002 10.117285
2667 1.000000 9.854909 6.428328
2668 1.000000 9.854749 3.952357
2669 1.000000 9.838282 6.110858
2670 1.000000 9.837509 8.506312
2671 1.000000 9.836098 10.855528
2672 1.000000 9.830502 2.887599
2673 1.000000 9.829315 1.619148
2674 1.000000 9.819199 4.715821
2675 1.000000 9.800000 11.000000
2676 1.000000 9.800000 1.000000
2677 1.000000 9.794809 2.378829
2678 1.000000 9.792190 8.810625
2679 1.000000 9.789278 10.369858
2680 1.000000 9.783418 2.108503
2681 1.000000 9.783240 6.958918
2682 1.000000 9.780636 7.744671
2683 1.000000 9.778095 3.654033
2684 1.000000 9.776668 1.390405
2685 1.000000 9.772533 9.121093
2686 1.000000 9.739200 10.673387
2687 1.000000 9.724608 9.403335
2688 1.000000 9.717181 3.172838
2689 1.000000 9.697263 4.967066
2690 1.000000 9.695392 1.179170
2691 1.000000 9.674552 9.676998
2692 1.000000 9.673833 6.664844
2693 1.000000 9.665967 8.017149
2694 1.000000 9.663721 1.851469
2695 1.000000 9.638672 9.969926
2696 1.000000 9.635135 5.297271
2697 1.000000 9.632686 2.634309
2698 1.000000 9.629622 10.517812
2699 1.000000 9.628854 5.615217
2700 1.000000 9.624809 10.848334
2701 1.000000 9.618699 4.429439
2702 1.000000 9.615476 10.237603
2703 1.000000 9.608384 5.941668
2704 1.000000 9.607614 7.509648
2705 1.000000 9.603117 1.599596
2706 1.000000 9.600000 11.000000
2707 1.000000 9.600000 1.000000
2708 1.000000 9.593888 8.308095
2709 1.000000 9.591146 7.215699
2710 1.000000 9.581353 3.454519
2711 1.000000 9.574311 1.371097
2712 1.000000 9.574037 6.313079
2713 1.000000 9.547786 4.124171
2714 1.000000 9.541040 8.619864
2715 1.000000 9.528817 3.807168
2716 1.000000 9.506459 10.695127
2717 1.000000 9.505663 8.940652
2718 1.000000 9.498904 2.912676
2719 1.000000 9.494687 1.162649
2720 1.000000 9.491026 2.316148
2721 1.000000 9.474869 4.689630
2722 1.000000 9.458064 9.238590
2723 1.000000 9.456094 2.054341
2724 1.000000 9.449923 10.401181
2725 1.000000 9.444031 6.924125
2726 1.000000 9.434135 7.781572
2727 1.000000 9.406353 9.816502
2728 1.000000 9.405545 10.125611
2729 1.000000 9.400442 1.783853
2730 1.000000 9.400000 11.000000
2731 1.000000 9.400000 1.000000
2732 1.000000 9.396812 10.860849
2733 1.000000 9.388011 5.034488
2734 1.000000 9.384868 9.526379
2735 1.000000 9.381317 6.600010
2736 1.000000 9.376802 1.537793
2737 1.000000 9.370502 1.326485
2738 1.000000 9.363841 3.225245
2739 1.000000 9.354609 10.571045
2740 1.000000 9.333850 5.401084
2741 1.000000 9.332002 6.086044
2742 1.000000 9.324673 8.084457
2743 1.000000 9.304497 5.756471
2744 1.000000 9.298942 2.582874
2745 1.000000 9.298547 7.454895
2746 1.000000 9.273856 1.163501
2747 1.000000 9.266896 8.414532
2748 1.000000 9.262116 10.741909
2749 1.000000 9.254933 4.352154
2750 1.000000 9.243253 3.586842
2751 1.000000 9.237370 10.307310
2752 1.000000 9.221900 8.770543
2753 1.000000 9.220848 3.957252
2754 1.000000 9.205421 9.994913
2755 1.000000 9.200000 11.000000
2756 1.000000 9.200000 1.000000
2757 1.000000 9.194301 7.131882
2758 1.000000 9.181178 6.358532
2759 1.000000 9.180943 1.949259
2760 1.000000 9.170447 1.391610
2761 1.000000 9.168904 2.258829
2762 1.000000 9.165711 1.651148
2763 1.000000 9.160110 9.122743
2764 1.000000 9.153281 10.514768
2765 1.000000 9.151287 2.925774
2766 1.000000 9.145206 4.740337
2767 1.000000 9.136880 10.862091
2768 1.000000 9.105839 9.722644
2769 1.000000 9.087801 9.428942
2770 1.000000 9.081992 1.196469
2771 1.000000 9.078290 7.775642
2772 1.000000 9.068471 6.765028
2773 1.000000 9.061878 5.155973
2774 1.000000 9.046326 10.684419
2775 1.000000 9.036168 10.157977
2776 1.000000 9.007762 5.576890
2777 1.000000 9.007119 3.289989
2778 1.000000 9.000000 11.000000
2779 1.000000 9.000000 1.000000
2780 1.000000 8.978138 1.468753
2781 1.000000 8.974247 8.130586
2782 1.000000 8.973022 6.003829
2783 1.000000 8.969447 10.369243
2784 1.000000 8.969351 2.597678
2785 1.000000 8.957418 1.765871
2786 1.000000 8.941659 7.428140
2787 1.000000 8.933167 8.514777
2788 1.000000 8.923449 10.843067
2789 1.000000 8.913510 9.918964
2790 1.000000 8.909668 4.081408
2791 1.000000 8.908886 2.039294
2792 1.000000 8.902938 1.210139
2793 1.000000 8.889058 10.548764
2794 1.000000 8.875804 4.453888
2795 1.000000 8.870959 8.908113
2796 1.000000 8.863504 6.442350
2797 1.000000 8.861985 3.693634
2798 1.000000 8.858251 2.329296
2799 1.000000 8.806303 7.014016
2800 1.000000 8.800000 11.000000
2801 1.000000 8.800000 1.000000
2802 1.000000 8.798518 10.696744
2803 1.000000 8.793779 9.603613
2804 1.000000 8.792670 4.880852
2805 1.000000 8.789213 9.279432
2806 1.000000 8.781807 2.916352
2807 1.000000 8.778010 1.398061
2808 1.000000 8.775051 10.187909
2809 1.000000 8.771648 1.635316
2810 1.000000 8.707358 1.172988
2811 1.000000 8.706682 5.320247
2812 1.000000 8.705872 10.423394
2813 1.000000 8.704241 10.850783
2814 1.000000 8.681239 7.806696
2815 1.000000 8.672235 9.899731
2816 1.000000 8.668541 1.884140
2817 1.000000 8.654381 5.740967
2818 1.000000 8.629549 3.320499
2819 1.000000 8.621924 10.631089
2820 1.000000 8.613854 2.190857
2821 1.000000 8.607662 8.226197
2822 1.000000 8.600000 11.000000
2823 1.000000 8.600000 1.000000
2824 1.000000 8.599293 7.387160
2825 1.000000 8.595716 2.571589
2826 1.000000 8.592319 6.171399
2827 1.000000 8.582207 1.353733
2828 1.000000 8.565346 8.637340
2829 1.000000 8.553196 1.571753
2830 1.000000 8.552560 6.658440
2831 1.000000 8.532658 10.090615
2832 1.000000 8.526261 4.127146
2833 1.000000 8.524507 9.043438
2834 1.000000 8.516642 10.829357
2835 1.000000 8.501381 9.693340
2836 1.000000 8.499180 10.302149
2837 1.000000 8.495374 4.585720
2838 1.000000 8.494583 1.170847
2839 1.000000 8.456234 9.407001
2840 1.000000 8.449597 10.498866
2841 1.000000 8.436234 1.768836
2842 1.000000 8.428625 2.956337
2843 1.000000 8.422016 3.722181
2844 1.000000 8.401168 5.043330
2845 1.000000 8.400000 11.000000
2846 1.000000 8.400000 1.000000
2847 1.000000 8.396626 10.677942
2848 1.000000 8.373885 2.023267
2849 1.000000 8.371562 1.381935
2850 1.000000 8.371355 7.058843
2851 1.000000 8.336744 2.326777
2852 1.000000 8.331110 9.934921
2853 1.000000 8.305196 10.844732
2854 1.000000 8.296219 1.187121
2855 1.000000 8.276038 1.576326
2856 1.000000 8.270577 5.457058
2857 1.000000 8.267775 7.569798
2858 1.000000 8.255940 10.178926
2859 1.000000 8.246817 5.861331
2860 1.000000 8.246405 7.979700
2861 1.000000 8.245448 10.415584
2862 1.000000 8.240362 2.649871
2863 1.000000 8.217524 3.354869
2864 1.000000 8.209847 10.635917
2865 1.000000 8.207923 8.789801
2866 1.000000 8.205125 6.340364
2867 1.000000 8.201096 9.682748
2868 1.000000 8.200000 11.000000
2869 1.000000 8.200000 1.000000
2870 1.000000 8.193360 4.351562
2871 1.000000 8.185614 9.149450
2872 1.000000 8.181897 8.397041
2873 1.000000 8.167516 1.819721
2874 1.000000 8.140464 4.790297
2875 1.000000 8.131572 1.373762
2876 1.000000 8.111872 10.844192
2877 1.000000 8.110584 3.984118
2878 1.000000 8.104393 1.174830
2879 1.000000 8.083335 9.412639
2880 1.000000 8.073865 2.090747
2881 1.000000 8.065079 6.739881
2882 1.000000 8.049149 3.005841
2883 1.000000 8.042787 9.953398
2884 1.000000 8.028472 1.597990
2885 1.000000 8.026544 10.238576
2886 1.000000 8.024776 10.478183
2887 1.000000 8.018566 2.368314
2888 1.000000 8.012301 10.689469
2889 1.000000 8.000000 11.000000
2890 1.000000 8.000000 1.000000
2891 1.000000 7.984283 5.185939
2892 1.000000 7.980456 3.652839
2893 1.000000 7.957907 7.248438
2894 1.000000 7.919961 1.183963
2895 1.000000 7.901367 4.548146
2896 1.000000 7.901023 1.854166
2897 1.000000 7.900486 1.383593
2898 1.000000 7.890451 10.846536
2899 1.000000 7.886797 9.640667
2900 1.000000 7.881788 2.694743
2901 1.000000 7.879156 6.000511
2902 1.000000 7.860321 8.969214
2903 1.000000 7.833327 5.584062
2904 1.000000 7.821561 4.222579
2905 1.000000 7.821408 10.639449
2906 1.000000 7.813358 8.595268
2907 1.000000 7.812222 10.414275
2908 1.000000 7.809534 7.719723
2909 1.000000 7.803859 10.154074
2910 1.000000 7.800118 3.325812
2911 1.000000 7.800000 11.000000
2912 1.000000 7.800000 1.000000
2913 1.000000 7.791194 1.609845
2914 1.000000 7.773618 9.886417
2915 1.000000 7.770990 9.267235
2916 1.000000 7.768499 8.160261
2917 1.000000 7.764009 4.882203
2918 1.000000 7.745196 2.110002
2919 1.000000 7.730160 1.181976
2920 1.000000 7.719848 2.391336
2921 1.000000 7.709905 3.909555
2922 1.000000 7.692922 6.381737
2923 1.000000 7.691724 10.825416
2924 1.000000 7.678431 1.377158
2925 1.000000 7.645091 3.008173
2926 1.000000 7.644035 6.908758
2927 1.000000 7.631733 1.842455
2928 1.000000 7.628410 10.606475
2929 1.000000 7.604939 9.555938
2930 1.000000 7.602618 5.215087
2931 1.000000 7.601161 10.350775
2932 1.000000 7.600000 11.000000
2933 1.000000 7.600000 1.000000
2934 1.000000 7.593844 3.602699
2935 1.000000 7.593676 4.542791
2936 1.000000 7.561666 1.583273
2937 1.000000 7.548153 10.092788
2938 1.000000 7.531215 1.171120
2939 1.000000 7.522012 2.653980
2940 1.000000 7.509207 9.823147
2941 1.000000 7.506600 5.940505
2942 1.000000 7.501380 10.791016
2943 1.000000 7.500562 4.205622
2944 1.000000 7.493833 8.869651
2945 1.000000 7.483454 7.396638
2946 1.000000 7.457558 1.353332
2947 1.000000 7.444071 10.526836
2948 1.000000 7.441996 5.522329
2949 1.000000 7.438674 4.869383
2950 1.000000 7.430202 2.307209
2951 1.000000 7.428099 9.281071
2952 1.000000 7.423970 8.435707
2953 1.000000 7.419629 2.041138
2954 1.000000 7.406663 3.280814
2955 1.000000 7.400000 11.000000
2956 1.000000 7.400000 1.000000
2957 1.000000 7.372748 1.766691
2958 1.000000 7.365290 3.906558
2959 1.000000 7.364399 10.258194
2960 1.000000 7.341048 7.890049
2961 1.000000 7.330099 1.536389
2962 1.000000 7.327268 6.564358
2963 1.000000 7.322342 4.507556
2964 1.000000 7.318563 1.174087
2965 1.000000 7.318531 10.850423
2966 1.000000 7.300756 10.669676
2967 1.000000 7.296377 3.612984
2968 1.000000 7.289837 2.934407
2969 1.000000 7.279693 9.631663
2970 1.000000 7.274177 9.966057
2971 1.000000 7.242674 5.159854
2972 1.000000 7.222414 10.447057
2973 1.000000 7.217790 1.361950
2974 1.000000 7.212315 4.213931
2975 1.000000 7.200000 11.000000
2976 1.000000 7.200000 1.000000
2977 1.000000 7.199234 2.549579
2978 1.000000 7.191829 9.016726
2979 1.000000 7.185273 7.009634
2980 1.000000 7.174498 4.771834
2981 1.000000 7.173573 6.205634
2982 1.000000 7.168715 5.775631
2983 1.000000 7.158699 1.900328
2984 1.000000 7.120781 1.621616
2985 1.000000 7.120058 10.832636
2986 1.000000 7.118170 10.200824
2987 1.000000 7.115692 2.213592
2988 1.000000 7.107724 1.166809
2989 1.000000 7.105631 3.409148
2990 1.000000 7.086425 10.644681
2991 1.000000 7.079272 9.351777
2992 1.000000 7.075631 5.449845
2993 1.000000 7.072179 3.992607
2994 1.000000 7.060830 8.258647
2995 1.000000 7.048859 4.461664
2996 1.000000 7.048102 3.753304
2997 1.000000 7.046986 8.673957
2998 1.000000 7.046942 3.128779
2999 1.000000 7.019658 1.364349
3000 1.000000 7.018272 7.457775
3001 1.000000 7.009936 9.941369
3002 1.000000 7.000000 11.000000
3003 1.000000 7.000000 1.000000
3004 1.000000 6.993460 9.662942
3005 1.000000 6.992544 10.434004
3006 1.000000 6.978832 4.982817
3007 1.000000 6.952267 2.813281
3008 1.000000 6.922836 10.825974
3009 1.000000 6.912180 4.217319
3010 1.000000 6.911383 1.999900
3011 1.000000 6.901778 4.688635
3012 1.000000 6.900844 6.606206
3013 1.000000 6.899943 1.530435
3014 1.000000 6.898376 1.176129
3015 1.000000 6.891595 1.762676
3016 1.000000 6.883564 5.937809
3017 1.000000 6.880265 3.557346
3018 1.000000 6.876001 2.462242
3019 1.000000 6.869517 10.635289
3020 1.000000 6.864640 10.222622
3021 1.000000 6.856035 5.236606
3022 1.000000 6.841193 9.047310
3023 1.000000 6.830604 7.845170
3024 1.000000 6.804114 3.998063
3025 1.000000 6.800000 11.000000
3026 1.000000 6.800000 1.000000
3027 1.000000 6.795974 3.303320
3028 1.000000 6.778737 4.419173
3029 1.000000 6.777091 1.356581
3030 1.000000 6.772090 5.610286
3031 1.000000 6.750584 3.773028
3032 1.000000 6.746949 2.178038
3033 1.000000 6.745033 9.409576
3034 1.000000 6.744778 10.028799
3035 1.000000 6.744504 10.431290
3036 1.000000 6.728831 9.750198
3037 1.000000 6.725909 7.034919
3038 1.000000 6.725274 10.841044
3039 1.000000 6.713192 6.262182
3040 1.000000 6.706681 3.037269
3041 1.000000 6.692224 4.900803
3042 1.000000 6.684227 1.172793
3043 1.000000 6.678099 1.609362
3044 1.000000 6.666046 10.661820
3045 1.000000 6.656369 4.640502
3046 1.000000 6.649421 8.291818
3047 1.000000 6.631814 4.202326
3048 1.000000 6.625873 8.683482
3049 1.000000 6.623643 1.878782
3050 1.000000 6.617279 2.750526
3051 1.000000 6.614302 3.527275
3052 1.000000 6.600000 11.000000
3053 1.000000 6.600000 1.000000
3054 1.000000 6.579211 5.124669
3055 1.000000 6.572351 1.392340
3056 1.000000 6.565945 5.413701
3057 1.000000 6.565338 10.260607
3058 1.000000 6.563800 3.964190
3059 1.000000 6.540360 2.414153
3060 1.000000 6.534886 4.436450
3061 1.000000 6.531682 5.898670
3062 1.000000 6.525884 10.525721
3063 1.000000 6.516381 10.804977
3064 1.000000 6.506575 9.061726
3065 1.000000 6.505892 3.266615
3066 1.000000 6.503842 7.450791
3067 1.000000 6.502323 3.749236
3068 1.000000 6.492817 9.991556
3069 1.000000 6.485143 1.187381
3070 1.000000 6.467545 9.693593
3071 1.000000 6.451274 1.633907
3072 1.000000 6.450676 6.626237
3073 1.000000 6.444177 9.398079
3074 1.000000 6.443011 4.717079
3075 1.000000 6.439798 2.116331
3076 1.000000 6.409021 4.104830
3077 1.000000 6.400000 11.000000
3078 1.000000 6.400000 1.000000
3079 1.000000 6.384643 4.286277
3080 1.000000 6.376255 3.014041
3081 1.000000 6.375590 4.955758
3082 1.000000 6.364290 1.403002
3083 1.000000 6.363996 3.500244
3084 1.000000 6.356582 7.890497
3085 1.000000 6.352146 10.647952
3086 1.000000 6.338336 10.401946
3087 1.000000 6.328377 1.854923
3088 1.000000 6.326833 10.847377
3089 1.000000 6.325764 5.605238
3090 1.000000 6.323087 4.520505
3091 1.000000 6.317637 3.922834
3092 1.000000 6.306698 6.262774
3093 1.000000 6.305470 2.677825
3094 1.000000 6.303368 5.260417
3095 1.000000 6.296609 3.696660
3096 1.000000 6.289888 10.160105
3097 1.000000 6.289035 1.189296
3098 1.000000 6.268778 7.000417
3099 1.000000 6.236669 8.378590
3100 1.000000 6.224223 9.877470
3101 1.000000 6.222866 3.302889
3102 1.000000 6.219843 8.800283
3103 1.000000 6.209280 2.362920
3104 1.000000 6.200000 11.000000
3105 1.000000 6.200000 1.000000
3106 1.000000 6.199496 5.921408
3107 1.000000 6.196929 1.610247
3108 1.000000 6.186176 4.303778
3109 1.000000 6.180646 4.777073
3110 1.000000 6.169085 9.201674
3111 1.000000 6.160949 9.568450
3112 1.000000 6.154998 10.785033
3113 1.000000 6.152220 1.390371
3114 1.000000 6.144489 10.562323
3115 1.000000 6.131031 3.792765
3116 1.000000 6.130918 2.072786
3117 1.000000 6.127869 4.527300
3118 1.000000 6.118658 5.072347
3119 1.000000 6.100780 2.876905
3120 1.000000 6.094973 10.328906
3121 1.000000 6.092819 1.172647
3122 1.000000 6.086787 3.555830
3123 1.000000 6.075933 3.966938
3124 1.000000 6.061598 5.419908
3125 1.000000 6.051660 3.127325
3126 1.000000 6.042240 1.808651
3127 1.000000 6.015392 7.435970
3128 1.000000 6.012963 10.065334
3129 1.000000 6.000000 11.000000
3130 1.000000 6.000000 1.000000
3131 1.000000 5.994919 6.554652
3132 1.000000 5.987607 4.322641
3133 1.000000 5.982045 10.859317
3134 1.000000 5.959720 5.739503
3135 1.000000 5.957144 1.349058
3136 1.000000 5.952141 4.712349
3137 1.000000 5.948305 10.678927
3138 1.000000 5.940191 7.916564
3139 1.000000 5.936353 2.609099
3140 1.000000 5.932936 9.788607
3141 1.000000 5.931842 1.563918
3142 1.000000 5.931441 3.383648
3143 1.000000 5.929554 3.766583
3144 1.000000 5.925292 4.503075
3145 1.000000 5.924762 6.141080
3146 1.000000 5.923403 4.939399
3147 1.000000 5.900467 10.480124
3148 1.000000 5.888433 2.296295
3149 1.000000 5.881569 1.165217
3150 1.000000 5.878595 9.440664
3151 1.000000 5.876431 6.958102
3152 1.000000 5.871525 9.081297
3153 1.000000 5.866445 3.987824
3154 1.000000 5.864994 5.224975
3155 1.000000 5.850009 8.716119
3156 1.000000 5.845379 10.248698
3157 1.000000 5.833709 8.348885
3158 1.000000 5.831203 2.013627
3159 1.000000 5.800000 11.000000
3160 1.000000 5.800000 1.000000
3161 1.000000 5.790006 2.904848
3162 1.000000 5.788418 3.589169
3163 1.000000 5.775078 10.845470
3164 1.000000 5.770739 1.759831
3165 1.000000 5.769087 4.367973
3166 1.000000 5.764365 3.180657
3167 1.000000 5.754738 5.534016
3168 1.000000 5.748601 1.367391
3169 1.000000 5.731982 4.578063
3170 1.000000 5.727961 10.667533
3171 1.000000 5.713320 4.791319
3172 1.000000 5.709451 9.991079
3173 1.000000 5.705538 3.817323
3174 1.000000 5.680930 1.184021
3175 1.000000 5.668756 5.032722
3176 1.000000 5.666210 4.045372
3177 1.000000 5.664122 10.467184
3178 1.000000 5.662275 9.671585
3179 1.000000 5.652066 1.536616
3180 1.000000 5.650264 5.900698
3181 1.000000 5.624345 6.314184
3182 1.000000 5.620549 3.405586
3183 1.000000 5.611558 10.247050
3184 1.000000 5.600000 11.000000
3185 1.000000 5.600000 1.000000
3186 1.000000 5.598770 2.505465
3187 1.000000 5.582848 5.294166
3188 1.000000 5.573701 2.205594
3189 1.000000 5.570235 7.594744
3190 1.000000 5.569070 4.425807
3191 1.000000 5.565851 9.307869
3192 1.000000 5.563575 10.832700
3193 1.000000 5.541761 6.689661
3194 1.000000 5.534116 1.950887
3195 1.000000 5.522517 4.629455
3196 1.000000 5.521228 2.814285
3197 1.000000 5.519474 7.138458
3198 1.000000 5.516943 8.952104
3199 1.000000 5.509982 3.651543
3200 1.000000 5.508606 1.719417
3201 1.000000 5.502140 10.639719
3202 1.000000 5.498614 3.887487
3203 1.000000 5.493488 1.352152
3204 1.000000 5.492241 1.162292
3205 1.000000 5.488410 3.120433
3206 1.000000 5.486639 8.088661
3207 1.000000 5.478728 4.851187
3208 1.000000 5.474113 5.584003
3209 1.000000 5.457428 4.090816
3210 1.000000 5.435940 9.875789
3211 1.000000 5.429805 8.558578
3212 1.000000 5.417775 10.139199
3213 1.000000 5.414388 10.421704
3214 1.000000 5.404393 5.088167
3215 1.000000 5.400000 11.000000
3216 1.000000 5.400000 1.000000
3217 1.000000 5.377548 9.558479
3218 1.000000 5.372793 1.536104
3219 1.000000 5.366326 4.474060
3220 1.000000 5.359298 10.839493
3221 1.000000 5.357317 3.403987
3222 1.000000 5.326276 6.115740
3223 1.000000 5.319197 5.820137
3224 1.000000 5.310874 4.680638
3225 1.000000 5.303099 1.183797
3226 1.000000 5.298666 5.341244
3227 1.000000 5.296719 10.661339
3228 1.000000 5.292935 3.866998
3229 1.000000 5.278641 2.309888
3230 1.000000 5.266671 4.116628
3231 1.000000 5.261858 1.787480
3232 1.000000 5.257634 2.037007
3233 1.000000 5.253084 3.623102
3234 1.000000 5.239427 2.605529
3235 1.000000 5.238383 4.904084
3236 1.000000 5.232333 1.369015
3237 1.000000 5.221573 6.457504
3238 1.000000 5.209054 2.922971
3239 1.000000 5.206904 9.221408
3240 1.000000 5.200000 11.000000
3241 1.000000 5.200000 1.000000
3242 1.000000 5.190919 10.284377
3243 1.000000 5.189516 3.204636
3244 1.000000 5.184067 10.497371
3245 1.000000 5.164637 4.523402
3246 1.000000 5.163286 10.042694
3247 1.000000 5.146734 8.911816
3248 1.000000 5.146673 10.838152
3249 1.000000 5.144924 9.782670
3250 1.000000 5.139232 7.768457
3251 1.000000 5.139229 5.561606
3252 1.000000 5.135725 5.136330
3253 1.000000 5.125175 7.294130
3254 1.000000 5.123167 1.595674
3255 1.000000 5.116422 6.846921
3256 1.000000 5.097052 4.731653
3257 1.000000 5.096945 1.177865
3258 1.000000 5.091586 3.959205
3259 1.000000 5.079557 8.259958
3260 1.000000 5.075291 4.190312
3261 1.000000 5.068934 9.495111
3262 1.000000 5.057554 10.669059
3263 1.000000 5.045179 3.720432
3264 1.000000 5.029788 3.428545
3265 1.000000 5.017316 5.845890
3266 1.000000 5.004590 1.381603
3267 1.000000 5.000000 11.000000
3268 1.000000 5.000000 1.000000
3269 1.000000 4.993523 4.952322
3270 1.000000 4.989534 1.862462
3271 1.000000 4.982235 5.338107
3272 1.000000 4.981810 8.609666
3273 1.000000 4.973021 2.148552
3274 1.000000 4.970110 6.142225
3275 1.000000 4.964534 4.569506
3276 1.000000 4.959744 10.440942
3277 1.000000 4.942643 2.446635
3278 1.000000 4.930904 10.212741
3279 1.000000 4.925427 10.834300
3280 1.000000 4.909501 3.109701
3281 1.000000 4.898925 2.795903
3282 1.000000 4.893437 4.060284
3283 1.000000 4.892575 1.606878
3284 1.000000 4.892280 1.193937
3285 1.000000 4.889233 9.943995
3286 1.000000 4.883970 4.771001
3287 1.000000 4.862294 4.247021
3288 1.000000 4.848267 10.631497
3289 1.000000 4.848126 6.465769
3290 1.000000 4.844096 3.854501
3291 1.000000 4.840966 5.135187
3292 1.000000 4.832706 5.582642
3293 1.000000 4.825875 9.653300
3294 1.000000 4.822602 9.281842
3295 1.000000 4.806172 3.586390
3296 1.000000 4.800000 11.000000
3297 1.000000 4.800000 1.000000
3298 1.000000 4.776782 1.416756
3299 1.000000 4.760515 4.601996
3300 1.000000 4.749682 8.947307
3301 1.000000 4.731865 4.948207
3302 1.000000 4.725742 8.050911
3303 1.000000 4.725660 3.314848
3304 1.000000 4.723880 7.567237
3305 1.000000 4.722087 1.750840
3306 1.000000 4.721940 10.834809
3307 1.000000 4.720091 10.401201
3308 1.000000 4.716714 7.114504
3309 1.000000 4.707511 5.865102
3310 1.000000 4.704670 2.004637
3311 1.000000 4.704078 1.178589
3312 1.000000 4.690667 5.331147
3313 1.000000 4.688640 6.756806
3314 1.000000 4.678048 10.136515
3315 1.000000 4.667451 4.054191
3316 1.000000 4.666995 4.264816
3317 1.000000 4.663165 4.764436
3318 1.000000 4.657501 10.641340
3319 1.000000 4.652959 2.283678
3320 1.000000 4.620329 3.783601
3321 1.000000 4.615273 8.528880
3322 1.000000 4.613693 6.169188
3323 1.000000 4.612865 2.607695
3324 1.000000 4.602689 9.853939
3325 1.000000 4.600000 11.000000
3326 1.000000 4.600000 1.000000
3327 1.000000 4.589675 1.353661
3328 1.000000 4.584769 2.992526
3329 1.000000 4.560748 5.098355
3330 1.000000 4.560577 1.583298
3331 1.000000 4.547273 5.563917
3332 1.000000 4.546740 9.528797
3333 1.000000 4.530719 4.651478
3334 1.000000 4.517313 3.541074
3335 1.000000 4.516411 10.806235
3336 1.000000 4.500760 10.544027
3337 1.000000 4.495216 4.341452
3338 1.000000 4.492783 1.175201
3339 1.000000 4.487615 4.881751
3340 1.000000 4.481961 10.302858
3341 1.000000 4.461975 3.938440
3342 1.000000 4.457972 9.210716
3343 1.000000 4.457345 1.837154
3344 1.000000 4.429737 5.286546
3345 1.000000 4.428058 3.288372
3346 1.000000 4.427496 4.157280
3347 1.000000 4.424205 6.477511
3348 1.000000 4.418989 5.824098
3349 1.000000 4.403600 10.045698
3350 1.000000 4.400000 11.000000
3351 1.000000 4.400000 1.000000
3352 1.000000 4.393167 1.404565
3353 1.000000 4.387972 2.096121
3354 1.000000 4.354678 8.865266
3355 1.000000 4.349065 4.740295
3356 1.000000 4.330559 2.398231
3357 1.000000 4.330457 8.212702
3358 1.000000 4.330067 3.711266
3359 1.000000 4.329847 10.671660
3360 1.000000 4.324262 7.292915
3361 1.000000 4.322238 5.009816
3362 1.000000 4.321363 10.849047
3363 1.000000 4.312618 9.761440
3364 1.000000 4.308204 7.752963
3365 1.000000 4.307484 2.765727
3366 1.000000 4.303307 6.096570
3367 1.000000 4.303294 6.861170
3368 1.000000 4.303047 1.183820
3369 1.000000 4.301434 4.367900
3370 1.000000 4.297766 1.634643
3371 1.000000 4.284827 10.453627
3372 1.000000 4.281396 5.521334
3373 1.000000 4.237724 3.969498
3374 1.000000 4.223633 3.099347
3375 1.000000 4.215673 10.222936
3376 1.000000 4.212438 5.245515
3377 1.000000 4.207549 9.474428
3378 1.000000 4.201643 1.377759
3379 1.000000 4.200000 11.000000
3380 1.000000 4.200000 1.000000
3381 1.000000 4.180870 4.195212
3382 1.000000 4.180506 3.464321
3383 1.000000 4.178700 4.791864
3384 1.000000 4.165625 1.872976
3385 1.000000 4.141031 8.537821
3386 1.000000 4.134118 5.769907
3387 1.000000 4.127530 10.827593
3388 1.000000 4.117217 10.640702
3389 1.000000 4.114690 5.004624
3390 1.000000 4.112627 9.975347
3391 1.000000 4.111956 6.372564
3392 1.000000 4.105465 4.415681
3393 1.000000 4.104309 1.165510
3394 1.000000 4.082139 9.169459
3395 1.000000 4.081024 2.171052
3396 1.000000 4.077090 1.566074
3397 1.000000 4.071565 3.755338
3398 1.000000 4.056397 10.426861
3399 1.000000 4.033382 2.534309
3400 1.000000 4.024377 5.484418
3401 1.000000 4.003202 5.233227
3402 1.000000 4.002846 4.016362
3403 1.000000 4.000000 11.000000
3404 1.000000 4.000000 1.000000
3405 1.000000 3.996403 1.340394
3406 1.000000 3.995089 6.036414
3407 1.000000 3.983813 9.720263
3408 1.000000 3.982034 4.816133
3409 1.000000 3.973825 6.676672
3410 1.000000 3.954948 2.882852
3411 1.000000 3.954352 7.117068
3412 1.000000 3.946722 10.198213
3413 1.000000 3.946019 3.256887
3414 1.000000 3.945929 4.253677
3415 1.000000 3.934837 10.826985
3416 1.000000 3.929628 1.703621
3417 1.000000 3.919921 8.053588
3418 1.000000 3.919796 8.873556
3419 1.000000 3.909491 4.465215
3420 1.000000 3.907177 10.640022
3421 1.000000 3.903190 5.028391
3422 1.000000 3.901920 7.548950
3423 1.000000 3.888799 1.176477
3424 1.000000 3.881767 1.941390
3425 1.000000 3.874422 3.565117
3426 1.000000 3.853622 9.449194
3427 1.000000 3.847896 5.740435
3428 1.000000 3.833276 10.430812
3429 1.000000 3.833155 1.435363
3430 1.000000 3.818508 2.325370
3431 1.000000 3.810949 9.970029
3432 1.000000 3.801918 3.834903
3433 1.000000 3.800000 11.000000
3434 1.000000 3.800000 1.000000
3435 1.000000 3.799627 5.273293
3436 1.000000 3.785379 6.304586
3437 1.000000 3.780015 4.850606
3438 1.000000 3.771595 4.088332
3439 1.000000 3.769321 5.498164
3440 1.000000 3.749747 8.494922
3441 1.000000 3.738449 10.839747
3442 1.000000 3.721670 4.530000
3443 1.000000 3.713733 4.335290
3444 1.000000 3.709135 1.203833
3445 1.000000 3.703590 10.663961
3446 1.000000 3.701608 1.636911
3447 1.000000 3.698579 5.050467
3448 1.000000 3.695819 5.984412
3449 1.000000 3.679119 10.221329
3450 1.000000 3.678106 3.054379
3451 1.000000 3.675959 2.089126
3452 1.000000 3.672463 9.170109
3453 1.000000 3.670225 2.637375
3454 1.000000 3.654397 9.738698
3455 1.000000 3.653626 6.911113
3456 1.000000 3.640010 3.392706
3457 1.000000 3.620793 10.466300
3458 1.000000 3.619427 1.401667
3459 1.000000 3.600580 6.565791
3460 1.000000 3.600000 11.000000
3461 1.000000 3.600000 1.000000
3462 1.000000 3.590344 1.830949
3463 1.000000 3.587901 5.238930
3464 1.000000 3.569991 4.897374
3465 1.000000 3.563116 4.161388
3466 1.000000 3.559282 3.670061
3467 1.000000 3.546673 5.688620
3468 1.000000 3.539930 3.912421
3469 1.000000 3.538740 4.532539
3470 1.000000 3.538263 5.444838
3471 1.000000 3.530111 10.828975
3472 1.000000 3.525098 7.732901
3473 1.000000 3.521065 10.030741
3474 1.000000 3.517454 7.284839
3475 1.000000 3.515942 1.171560
3476 1.000000 3.514250 8.848294
3477 1.000000 3.511438 8.115328
3478 1.000000 3.509178 9.477068
3479 1.000000 3.495059 2.338932
3480 1.000000 3.481984 10.628998
3481 1.000000 3.461590 4.336177
3482 1.000000 3.459581 5.080091
3483 1.000000 3.449035 6.215960
3484 1.000000 3.443045 10.346137
3485 1.000000 3.437243 1.574626
3486 1.000000 3.424400 5.918852
3487 1.000000 3.417590 1.348838
3488 1.000000 3.401471 2.855587
3489 1.000000 3.400000 11.000000
3490 1.000000 3.400000 1.000000
3491 1.000000 3.387631 2.047459
3492 1.000000 3.381262 3.232072
3493 1.000000 3.371930 4.631847
3494 1.000000 3.351560 4.938698
3495 1.000000 3.351001 9.804991
3496 1.000000 3.347627 5.283566
3497 1.000000 3.346441 4.062963
3498 1.000000 3.332591 1.771548
3499 1.000000 3.327093 10.807486
3500 1.000000 3.324874 8.459764
3501 1.000000 3.313844 3.537996
3502 1.000000 3.302945 10.576399
3503 1.000000 3.300557 4.473481
3504 1.000000 3.300378 6.858155
3505 1.000000 3.300060 1.177972
3506 1.000000 3.299611 10.146222
3507 1.000000 3.297562 5.504333
3508 1.000000 3.289007 6.476668
3509 1.000000 3.284752 9.190467
3510 1.000000 3.280318 2.539587
3511 1.000000 3.247091 3.814491
3512 1.000000 3.236681 5.732231
3513 1.000000 3.236363 4.246415
3514 1.000000 3.225815 5.122779
3515 1.000000 3.222805 1.411191
3516 1.000000 3.211519 9.531215
3517 1.000000 3.200822 10.383253
3518 1.000000 3.200000 11.000000
3519 1.000000 3.200000 1.000000
3520 1.000000 3.179234 7.620029
3521 1.000000 3.168098 6.032520
3522 1.000000 3.167607 4.660645
3523 1.000000 3.166526 2.240461
3524 1.000000 3.145146 8.046136
3525 1.000000 3.141200 10.839087
3526 1.000000 3.138084 1.625454
3527 1.000000 3.137785 8.818087
3528 1.000000 3.137495 4.979596
3529 1.000000 3.135338 7.235440
3530 1.000000 3.128317 9.985269
3531 1.000000 3.127543 1.922994
3532 1.000000 3.119145 10.654042
3533 1.000000 3.109224 1.187170
3534 1.000000 3.108566 3.041477
3535 1.000000 3.107297 4.418604
3536 1.000000 3.105905 5.298731
3537 1.000000 3.081559 4.044905
3538 1.000000 3.051554 3.356466
3539 1.000000 3.045462 5.523791
3540 1.000000 3.039520 6.275264
3541 1.000000 3.018050 2.717469
3542 1.000000 3.008854 1.376556
3543 1.000000 3.007658 4.565190
3544 1.000000 3.006586 9.762527
3545 1.000000 3.001274 10.215521
3546 1.000000 3.000000 11.000000
3547 1.000000 3.000000 1.000000
3548 1.000000 2.999894 10.466954
3549 1.000000 2.998160 3.636738
3550 1.000000 2.989493 6.597308
3551 1.000000 2.981015 5.088774
3552 1.000000 2.980257 5.786869
3553 1.000000 2.975821 8.439328
3554 1.000000 2.963864 4.267069
3555 1.000000 2.952112 4.736400
3556 1.000000 2.945769 10.828544
3557 1.000000 2.930612 9.127707
3558 1.000000 2.930228 9.432093
3559 1.000000 2.923786 6.916615
3560 1.000000 2.907769 2.090295
3561 1.000000 2.907585 3.872563
3562 1.000000 2.907290 2.423711
3563 1.000000 2.903797 1.792902
3564 1.000000 2.903120 1.561135
3565 1.000000 2.902693 1.184051
3566 1.000000 2.889224 10.637937
3567 1.000000 2.886789 5.311627
3568 1.000000 2.852339 6.039398
3569 1.000000 2.852081 7.830231
3570 1.000000 2.842976 4.479845
3571 1.000000 2.830651 10.018992
3572 1.000000 2.817290 7.496152
3573 1.000000 2.812428 5.557304
3574 1.000000 2.800000 11.000000
3575 1.000000 2.800000 1.000000
3576 1.000000 2.797323 10.372582
3577 1.000000 2.789002 4.098746
3578 1.000000 2.786314 4.675683
3579 1.000000 2.785775 5.112564
3580 1.000000 2.784424 3.095465
3581 1.000000 2.777450 8.763814
3582 1.000000 2.770701 8.173626
3583 1.000000 2.763064 1.380550
3584 1.000000 2.747638 7.206981
3585 1.000000 2.746919 10.822683
3586 1.000000 2.732540 9.703015
3587 1.000000 2.729111 3.408785
3588 1.000000 2.725869 6.345034
3589 1.000000 2.707630 4.320824
3590 1.000000 2.705218 5.805794
3591 1.000000 2.704736 1.179712
3592 1.000000 2.702031 2.788771
3593 1.000000 2.700572 10.607295
3594 1.000000 2.672169 5.347950
3595 1.000000 2.671750 1.621151
3596 1.000000 2.670807 3.693518
3597 1.000000 2.670012 1.898248
3598 1.000000 2.665503 4.765187
3599 1.000000 2.658351 2.196140
3600 1.000000 2.647737 6.649080
3601 1.000000 2.640095 10.199700
3602 1.000000 2.607281 9.045753
3603 1.000000 2.606415 4.518723
3604 1.000000 2.606043 8.489979
3605 1.000000 2.601012 9.378551
3606 1.000000 2.600000 11.000000
3607 1.000000 2.600000 1.000000
3608 1.000000 2.597923 5.157334
3609 1.000000 2.589700 2.505700
3610 1.000000 2.589055 3.953710
3611 1.000000 2.571194 6.095951
3612 1.000000 2.570915 5.580166
3613 1.000000 2.562127 10.827146
3614 1.000000 2.558668 9.946725
3615 1.000000 2.553151 10.426858
3616 1.000000 2.549226 6.962323
3617 1.000000 2.542670 1.363330
3618 1.000000 2.523471 7.921345
3619 1.000000 2.516595 7.627294
3620 1.000000 2.516441 4.228380
3621 1.000000 2.511815 1.165776
3622 1.000000 2.497684 4.830565
3623 1.000000 2.496287 10.643260
3624 1.000000 2.465754 3.107391
3625 1.000000 2.459690 1.554379
3626 1.000000 2.454213 5.840733
3627 1.000000 2.453738 4.655547
3628 1.000000 2.445646 5.377692
3629 1.000000 2.445565 7.316152
3630 1.000000 2.435969 9.676256
3631 1.000000 2.432340 1.787295
3632 1.000000 2.423138 8.203773
3633 1.000000 2.417226 3.436840
3634 1.000000 2.414424 5.184984
3635 1.000000 2.405639 8.779338
3636 1.000000 2.401300 2.031390
3637 1.000000 2.400000 11.000000
3638 1.000000 2.400000 1.000000
3639 1.000000 2.397124 6.394166
3640 1.000000 2.386688 10.197200
3641 1.000000 2.380422 4.450721
3642 1.000000 2.378068 2.810051
3643 1.000000 2.363406 10.839442
3644 1.000000 2.362696 2.291743
3645 1.000000 2.360322 3.715470
3646 1.000000 2.337954 5.614009
3647 1.000000 2.336530 10.424663
3648 1.000000 2.334670 1.207210
3649 1.000000 2.330869 9.131534
3650 1.000000 2.330582 6.714463
3651 1.000000 2.329601 4.000800
3652 1.000000 2.315457 4.859220
3653 1.000000 2.302705 10.650434
3654 1.000000 2.299803 6.099547
3655 1.000000 2.293644 8.480138
3656 1.000000 2.293238 1.415768
3657 1.000000 2.285664 9.964307
3658 1.000000 2.270821 9.421301
3659 1.000000 2.267001 4.251780
3660 1.000000 2.263672 7.035964
3661 1.000000 2.249944 4.677476
3662 1.000000 2.247316 2.544850
3663 1.000000 2.232614 7.589635
3664 1.000000 2.231821 5.234028
3665 1.000000 2.230974 7.891853
3666 1.000000 2.226512 1.662162
3667 1.000000 2.222043 5.425643
3668 1.000000 2.200000 11.000000
3669 1.000000 2.200000 1.000000
3670 1.000000 2.195614 5.840268
3671 1.000000 2.190906 3.266920
3672 1.000000 2.163266 10.845951
3673 1.000000 2.154947 1.147060
3674 1.000000 2.154285 1.933675
3675 1.000000 2.140847 9.722072
3676 1.000000 2.139969 4.501663
3677 1.000000 2.139850 7.302480
3678 1.000000 2.139836 8.165096
3679 1.000000 2.135417 4.894490
3680 1.000000 2.135107 10.469309
3681 1.000000 2.133958 8.926349
3682 1.000000 2.131570 3.014032
3683 1.000000 2.129677 10.220236
3684 1.000000 2.109997 1.320167
3685 1.000000 2.103079 2.213321
3686 1.000000 2.098658 10.672155
3687 1.000000 2.090595 6.570354
3688 1.000000 2.089772 6.305412
3689 1.000000 2.086657 5.631508
3690 1.000000 2.085854 3.788308
3691 1.000000 2.076867 8.671327
3692 1.000000 2.075270 3.507520
3693 1.000000 2.055452 4.060796
3694 1.000000 2.053404 2.771649
3695 1.000000 2.046327 1.518144
3696 1.000000 2.043121 6.849731
3697 1.000000 2.041253 9.222880
3698 1.000000 2.039049 4.727650
3699 1.000000 2.034166 5.267781
3700 1.000000 2.029404 4.309982
3701 1.000000 2.020129 6.023719
3702 1.000000 2.019601 8.399130
3703 1.000000 2.008681 9.986123
3704 1.000000 2.000000 11.000000
3705 1.000000 2.000000 1.000000
3706 1.000000 1.998330 5.453615
3707 1.000000 1.992508 9.514555
3708 1.000000 1.985840 1.753637
3709 1.000000 1.983323 2.484023
3710 1.000000 1.982898 7.754092
3711 1.000000 1.962379 7.112032
3712 1.000000 1.961418 4.965803
3713 1.000000 1.957457 7.479407
3714 1.000000 1.949656 10.832605
3715 1.000000 1.947154 1.165015
3716 1.000000 1.942638 10.411609
3717 1.000000 1.917008 8.014187
3718 1.000000 1.916188 3.240044
3719 1.000000 1.914560 5.774097
3720 1.000000 1.908346 10.625929
3721 1.000000 1.902040 4.566946
3722 1.000000 1.884350 1.354540
3723 1.000000 1.881006 9.013901
3724 1.000000 1.861974 2.032483
3725 1.000000 1.860282 4.826343
3726 1.000000 1.855751 9.762086
3727 1.000000 1.848113 10.202259
3728 1.000000 1.843822 3.633687
3729 1.000000 1.838190 2.272784
3730 1.000000 1.837416 8.777981
3731 1.000000 1.834391 2.981939
3732 1.000000 1.833131 6.485362
3733 1.000000 1.826618 3.893018
3734 1.000000 1.825843 5.327147
3735 1.000000 1.821543 8.241885
3736 1.000000 1.821130 6.232204
3737 1.000000 1.814193 5.550828
3738 1.000000 1.813317 6.733297
3739 1.000000 1.811018 4.373975
3740 1.000000 1.810219 9.355548
3741 1.000000 1.809818 2.695110
3742 1.000000 1.800084 1.566925
3743 1.000000 1.800000 11.000000
3744 1.000000 1.800000 1.000000
3745 1.000000 1.795191 8.526712
3746 1.000000 1.792957 7.286519
3747 1.000000 1.785082 4.127783
3748 1.000000 1.762590 6.981959
3749 1.000000 1.759236 5.976633
3750 1.000000 1.757795 1.817931
3751 1.000000 1.756501 10.848533
3752 1.000000 1.753557 5.005744
3753 1.000000 1.750494 3.424761
3754 1.000000 1.748704 1.163711
3755 1.000000 1.744850 7.580625
3756 1.000000 1.736342 10.678699
3757 1.000000 1.732667 9.978791
3758 1.000000 1.730814 7.833248
3759 1.000000 1.727821 4.689650
3760 1.000000 1.725420 10.439441
3761 1.000000 1.715721 9.168240
3762 1.000000 1.707286 9.579827
3763 1.000000 1.691471 2.468379
3764 1.000000 1.674251 1.345783
3765 1.000000 1.664237 5.735833
3766 1.000000 1.651679 3.198537
3767 1.000000 1.633819 5.370525
3768 1.000000 1.624383 8.065102
3769 1.000000 1.620788 3.726139
3770 1.000000 1.619635 4.863170
3771 1.000000 1.617812 2.817320
3772 1.000000 1.615471 2.213280
3773 1.000000 1.610630 8.946312
3774 1.000000 1.603271 4.530860
3775 1.000000 1.601964 8.314410
3776 1.000000 1.600000 11.000000
3777 1.000000 1.600000 1.000000
3778 1.000000 1.599087 10.205189
3779 1.000000 1.598902 6.393534
3780 1.000000 1.593868 8.731898
3781 1.000000 1.588494 6.632661
3782 1.000000 1.583958 5.547932
3783 1.000000 1.582208 7.132006
3784 1.000000 1.580248 4.323837
3785 1.000000 1.578819 9.788752
3786 1.000000 1.577834 6.151844
3787 1.000000 1.577792 2.000851
3788 1.000000 1.575806 7.381772
3789 1.000000 1.572408 3.927630
3790 1.000000 1.569895 1.528562
3791 1.000000 1.563672 1.745024
3792 1.000000 1.560968 10.613739
3793 1.000000 1.560069 6.865207
3794 1.000000 1.555719 9.387732
3795 1.000000 1.555106 8.527139
3796 1.000000 1.554744 3.005875
3797 1.000000 1.551734 10.829242
3798 1.000000 1.550409 5.046622
3799 1.000000 1.549936 3.541947
3800 1.000000 1.548649 1.154709
3801 1.000000 1.547716 4.128039
3802 1.000000 1.531775 7.624424
3803 1.000000 1.531010 2.615070
3804 1.000000 1.519681 5.905132
3805 1.000000 1.510505 7.841079
3806 1.000000 1.497735 10.006812
3807 1.000000 1.496047 9.171111
3808 1.000000 1.495932 10.404981
3809 1.000000 1.466422 4.709065
3810 1.000000 1.465807 3.346118
3811 1.000000 1.465095 9.592614
3812 1.000000 1.454493 1.319466
3813 1.000000 1.444089 2.392712
3814 1.000000 1.412373 5.426245
3815 1.000000 1.402470 5.657476
3816 1.000000 1.401549 8.192288
3817 1.000000 1.400000 11.000000
3818 1.000000 1.400000 1.000000
3819 1.000000 1.395756 4.896655
3820 1.000000 1.387040 8.954211
3821 1.000000 1.385258 2.203515
3822 1.000000 1.385035 6.529394
3823 1.000000 1.384959 8.763786
3824 1.000000 1.384240 6.307166
3825 1.000000 1.382457 4.358777
3826 1.000000 1.382391 3.738206
3827 1.000000 1.381489 10.660981
3828 1.000000 1.380660 3.174604
3829 1.000000 1.376761 6.989613
3830 1.000000 1.376760 2.781423
3831 1.000000 1.375613 7.209822
3832 1.000000 1.372878 1.847944
3833 1.000000 1.371574 8.010280
3834 1.000000 1.369552 5.112751
3835 1.000000 1.365942 7.417599
3836 1.000000 1.363302 6.087088
3837 1.000000 1.361268 10.229303
3838 1.000000 1.361014 6.750487
3839 1.000000 1.360802 8.379618
3840 1.000000 1.356481 3.950661
3841 1.000000 1.356148 4.547886
3842 1.000000 1.354986 10.845504
3843 1.000000 1.354320 1.644337
3844 1.000000 1.352009 9.806382
3845 1.000000 1.349560 8.579489
3846 1.000000 1.347827 4.163902
3847 1.000000 1.343260 2.031103
3848 1.000000 1.342904 2.973830
3849 1.000000 1.342812 9.369728
3850 1.000000 1.338067 7.619332
3851 1.000000 1.337184 1.169823
3852 1.000000 1.335024 1.455616
3853 1.000000 1.329275 3.516497
3854 1.000000 1.327339 5.858732
3855 1.000000 1.319983 10.470435
3856 1.000000 1.318837 2.551840
3857 1.000000 1.312258 10.027610
3858 1.000000 1.307561 7.809713
3859 1.000000 1.307081 9.144831
3860 1.000000 1.283949 9.585957
3861 1.000000 1.237357 4.737957
3862 1.000000 1.229331 4.984263
3863 1.000000 1.212426 5.482859
3864 1.000000 1.206927 3.305207
3865 1.000000 1.203739 2.322343
3866 1.000000 1.200000 11.000000
3867 1.000000 1.200000 1.000000
3868 1.000000 1.185055 8.885822
3869 1.000000 1.184870 6.395185
3870 1.000000 1.184397 1.330160
3871 1.000000 1.182735 10.680673
3872 1.000000 1.182640 5.664912
3873 1.000000 1.182577 6.916006
3874 1.000000 1.181594 6.562773
3875 1.000000 1.180904 8.114849
3876 1.000000 1.178263 7.107656
3877 1.000000 1.178143 4.420150
3878 1.000000 1.177371 3.680480
3879 1.000000 1.175700 8.298547
3880 1.000000 1.175508 10.308675
3881 1.000000 1.174827 2.707865
3882 1.000000 1.174504 7.301519
3883 1.000000 1.174418 6.224613
3884 1.000000 1.173483 3.864836
3885 1.000000 1.171966 1.728004
3886 1.000000 1.170348 6.041736
3887 1.000000 1.168116 8.698622
3888 1.000000 1.167050 3.110214
3889 1.000000 1.166206 6.734090
3890 1.000000 1.165521 7.497283
3891 1.000000 1.165145 4.248968
3892 1.000000 1.164104 2.901172
3893 1.000000 1.163990 4.057650
3894 1.000000 1.163108 1.920805
3895 1.000000 1.162837 8.496337
3896 1.000000 1.160622 9.905761
3897 1.000000 1.160377 2.130353
3898 1.000000 1.159502 9.280768
3899 1.000000 1.158765 10.854071
3900 1.000000 1.157250 5.135784
3901 1.000000 1.156612 7.922910
3902 1.000000 1.154238 9.710086
3903 1.000000 1.153894 9.065405
3904 1.000000 1.152262 10.119848
3905 1.000000 1.152081 1.531097
3906 1.000000 1.150103 5.852752
3907 1.000000 1.148474 2.498799
3908 1.000000 1.148466 1.150135
3909 1.000000 1.148179 3.482140
3910 1.000000 1.147559 9.479105
3911 1.000000 1.146878 10.504466
3912 1.000000 1.144695 7.701766
3913 1.000000 1.141965 4.596129
3914 1.000000 1.130194 4.867690
3915 1.000000 1.000000 11.000000
3916 1.000000 1.000000 10.800000
3917 1.000000 1.000000 10.600000
3918 1.000000 1.000000 10.400000
3919 1.000000 1.000000 10.200000
3920 1.000000 1.000000 10.000000
3921 1.000000 1.000000 9.800000
3922 1.000000 1.000000 9.600000
3923 1.000000 1.000000 9.400000
3924 1.000000 1.000000 9.200000
3925 1.000000 1.000000 9.000000
3926 1.000000 1.000000 8.800000
3927 1.000000 1.000000 8.600000
3928 1.000000 1.000000 8.400000
3929 1.000000 1.000000 8.200000
3930 1.000000 1.000000 8.000000
3931 1.000000 1.000000 7.800000
3932 1.000000 1.000000 7.600000
3933 1.000000 1.000000 7.400000
3934 1.000000 1.000000 7.200000
3935 1.000000 1.000000 7.000000
3936 1.000000 1.000000 6.800000
3937 1.000000 1.000000 6.600000
3938 1.000000 1.000000 6.400000
3939 1.000000 1.000000 6.200000
3940 1.000000 1.000000 6.000000
3941 1.000000 1.000000 5.800000
3942 1.000000 1.000000 5.600000
3943 1.000000 1.000000 5.400000
3944 1.000000 1.000000 5.200000
3945 1.000000 1.000000 5.000000
3946 1.000000 1.000000 4.800000
3947 1.000000 1.000000 4.600000
3948 1.000000 1.000000 4.400000
3949 1.000000 1.000000 4.200000
3950 1.000000 1.000000 4.000000
3951 1.000000 1.000000 3.800000
3952 1.000000 1.000000 3.600000
3953 1.000000 1.000000 3.400000
3954 1.000000 1.000000 3.200000
3955 1.000000 1.000000 3.000000
3956 1.000000 1.000000 2.800000
3957 1.000000 1.000000 2.600000
3958 1.000000 1.000000 2.400000
3959 1.000000 1.000000 2.200000
3960 1.000000 1.000000 2.000000
3961 1.000000 1.000000 1.800000
3962 1.000000 1.000000 1.600000
3963 1.000000 1.000000 1.400000
3964 1.000000 1.000000 1.200000
3965 1.000000 1.000000 1.000000
3966 1.200000 11.000000 1.000000
3967 1.400000 11.000000 1.000000
3968 1.600000 11.000000 1.000000
3969 1.800000 11.000000 1.000000
3970 2.000000 11.000000 1.000000
3971 2.200000 11.000000 1.000000
3972 2.400000 11.000000 1.000000
3973 2.600000 11.000000 1.000000
3974 2.800000 11.000000 1.000000
3975 3.000000 11.000000 1.000000
3976 3.200000 11.000000 1.000000
3977 3.400000 11.000000 1.000000
3978 3.600000 11.000000 1.000000
3979 3.800000 11.000000 1.000000
3980 4.000000 11.000000 1.000000
3981 4.200000 11.000000 1.000000
3982 4.400000 11.000000 1.000000
3983 4.600000 11.000000 1.000000
3984 4.800000 11.000000 1.000000
3985 5.000000 11.000000 1.000000
3986 5.200000 11.000000 1.000000
3987 5.400000 11.000000 1.000000
3988 5.600000 11.000000 1.000000
3989 5.800000 11.000000 1.000000
3990 6.000000 11.000000 1.000000
3991 6.200000 11.000000 1.000000
3992 6.400000 11.000000 1.000000
3993 6.600000 11.000000 1.000000
3994 6.800000 11.000000 1.000000
3995 7.000000 11.000000 1.000000
3996 7.200000 11.000000 1.000000
3997 7.400000 11.000000 1.000000
3998 7.600000 11.000000 1.000000
3999 7.800000 11.000000 1.000000
4000 8.000000 11.000000 1.000000
4001 8.200000 11.000000 1.000000
4002 8.400000 11.000000 1.000000
4003 8.600000 11.000000 1.000000
4004 8.800000 11.000000 1.000000
4005 9.000000 11.000000 1.000000
4006 9.200000 11.000000 1.000000
4007 9.400000 11.000000 1.000000
4008 9.600000 11.000000 1.000000
4009 9.800000 11.000000 1.000000
4010 10.000000 11.000000 1.000000
4011 10.200000 11.000000 1.000000
4012 10.400000 11.000000 1.000000
4013 10.600000 11.000000 1.000000
4014 10.800000 11.000000 1.000000
4015 11.000000 11.000000 1.000000
4016 5.374699 10.856510 1.000000
4017 6.120654 10.855343 1.000000
4018 6.494902 10.854242 1.000000
4019 2.131717 10.848036 1.000000
4020 7.922016 10.847214 1.000000
4021 1.736864 10.845056 1.000000
4022 3.288258 10.844401 1.000000
4023 8.491821 10.843239 1.000000
4024 5.068421 10.843229 1.000000
4025 10.852205 10.841959 1.000000
4026 3.910405 10.840261 1.000000
4027 6.704989 10.838950 1.000000
4028 2.702661 10.837494 1.000000
4029 1.152903 10.837445 1.000000
4030 4.877532 10.835960 1.000000
4031 5.556941 10.835018 1.000000
4032 10.283181 10.834076 1.000000
4033 8.894949 10.832422 1.000000
4034 10.067692 10.832164 1.000000
4035 3.680856 10.831158 1.000000
4036 7.510475 10.830995 1.000000
4037 1.534988 10.830294 1.000000
4038 10.661780 10.829999 1.000000
4039 4.680675 10.829811 1.000000
4040 7.716385 10.829598 1.000000
4041 5.919119 10.829164 1.000000
4042 7.296511 10.827190 1.000000
4043 4.483162 10.825049 1.000000
4044 9.879048 10.824866 1.000000
4045 10.474129 10.822776 1.000000
4046 9.283608 10.820641 1.000000
4047 9.663582 10.820099 1.000000
4048 7.088207 10.819243 1.000000
4049 1.932160 10.818934 1.000000
4050 6.306090 10.818072 1.000000
4051 8.294055 10.817765 1.000000
4052 4.285015 10.816094 1.000000
4053 5.738391 10.814022 1.000000
4054 2.898394 10.812974 1.000000
4055 9.485563 10.812749 1.000000
4056 6.903710 10.811862 1.000000
4057 9.092621 10.811709 1.000000
4058 2.513295 10.811028 1.000000
4059 3.484981 10.805765 1.000000
4060 4.097671 10.805469 1.000000
4061 1.334324 10.804840 1.000000
4062 8.679585 10.801187 1.000000
4063 11.000000 10.800000 1.000000
4064 3.085497 10.787335 1.000000
4065 8.102963 10.784563 1.000000
4066 5.225864 10.783150 1.000000
4067 2.331158 10.780303 1.000000
4068 6.526000 10.691788 1.000000
4069 6.088547 10.690164 1.000000
4070 3.823889 10.686834 1.000000
4071 1.717201 10.670950 1.000000
4072 10.170142 10.669301 1.000000
4073 7.882192 10.666924 1.000000
4074 2.141193 10.665078 1.000000
4075 10.806357 10.660661 1.000000
4076 9.759037 10.660334 1.000000
4077 3.266237 10.658711 1.000000
4078 5.418347 10.657730 1.000000
4079 8.477923 10.656845 1.000000
4080 7.414756 10.651259 1.000000
4081 5.019974 10.651046 1.000000
4082 8.808735 10.648647 1.000000
4083 4.815163 10.648416 1.000000
4084 2.716478 10.648330 1.000000
4085 6.740688 10.647462 1.000000
4086 7.646857 10.643732 1.000000
4087 1.475498 10.639901 1.000000
4088 1.174013 10.639560 1.000000
4089 7.170504 10.639169 1.000000
4090 5.621890 10.633777 1.000000
4091 4.600138 10.633329 1.000000
4092 6.310871 10.629755 1.000000
4093 1.924411 10.627680 1.000000
4094 10.590901 10.627220 1.000000
4095 9.397228 10.625477 1.000000
4096 4.385460 10.622706 1.000000
4097 10.384754 10.622418 1.000000
4098 5.869362 10.622267 1.000000
4099 9.006282 10.610282 1.000000
4100 9.973571 10.603781 1.000000
4101 3.640012 10.600666 1.000000
4102 11.000000 10.600000 1.000000
4103 8.263984 10.599168 1.000000
4104 4.001966 10.594634 1.000000
4105 9.206541 10.594436 1.000000
4106 3.458950 10.594376 1.000000
4107 6.944657 10.593048 1.000000
4108 2.519920 10.590617 1.000000
4109 2.922651 10.588955 1.000000
4110 4.188719 10.584679 1.000000
4111 5.209185 10.573854 1.000000
4112 9.565824 10.560112 1.000000
4113 8.054379 10.538215 1.000000
4114 8.645336 10.528772 1.000000
4115 2.333034 10.521473 1.000000
4116 3.110634 10.520443 1.000000
4117 1.320206 10.519267 1.000000
4118 6.102636 10.509173 1.000000
4119 6.528589 10.499304 1.000000
4120 1.648547 10.489864 1.000000
4121 10.833454 10.489344 1.000000
4122 10.202667 10.463735 1.000000
4123 7.807279 10.462255 1.000000
4124 7.315651 10.460352 1.000000
4125 5.691936 10.460334 1.000000
4126 2.109791 10.452910 1.000000
4127 5.417033 10.450972 1.000000
4128 3.818033 10.450924 1.000000
4129 9.778890 10.448879 1.000000
4130 4.753207 10.445116 1.000000
4131 7.554942 10.442980 1.000000
4132 10.645922 10.442913 1.000000
4133 4.976518 10.440386 1.000000
4134 6.734112 10.434079 1.000000
4135 1.861939 10.424910 1.000000
4136 4.499707 10.422961 1.000000
4137 3.346262 10.416243 1.000000
4138 7.066085 10.415072 1.000000
4139 8.439378 10.414715 1.000000
4140 2.732268 10.413708 1.000000
4141 1.145605 10.410851 1.000000
4142 8.857320 10.409955 1.000000
4143 6.341833 10.402988 1.000000
4144 11.000000 10.400000 1.000000
4145 10.430398 10.389754 1.000000
4146 5.901125 10.383945 1.000000
4147 9.340965 10.375156 1.000000
4148 4.272472 10.372904 1.000000
4149 9.091573 10.369688 1.000000
4150 1.484569 10.364664 1.000000
4151 10.003976 10.352984 1.000000
4152 5.183855 10.346903 1.000000
4153 3.580874 10.345755 1.000000
4154 8.217266 10.342431 1.000000
4155 4.036501 10.333406 1.000000
4156 2.532289 10.324823 1.000000
4157 2.940399 10.314211 1.000000
4158 9.567408 10.303396 1.000000
4159 10.827389 10.296367 1.000000
4160 6.867760 10.296309 1.000000
4161 6.136682 10.292412 1.000000
4162 5.561536 10.285157 1.000000
4163 7.974527 10.284238 1.000000
4164 1.297528 10.283760 1.000000
4165 3.179042 10.271163 1.000000
4166 2.287637 10.257665 1.000000
4167 8.646275 10.256660 1.000000
4168 6.559857 10.243880 1.000000
4169 4.676230 10.241475 1.000000
4170 7.213754 10.236260 1.000000
4171 7.707775 10.234343 1.000000
4172 2.026565 10.233142 1.000000
4173 1.717937 10.230723 1.000000
4174 10.631443 10.229309 1.000000
4175 7.444343 10.215580 1.000000
4176 3.785009 10.213891 1.000000
4177 10.209918 10.210833 1.000000
4178 9.808278 10.209408 1.000000
4179 4.925810 10.204516 1.000000
4180 11.000000 10.200000 1.000000
4181 5.758215 10.177237 1.000000
4182 1.142657 10.168672 1.000000
4183 5.364086 10.166983 1.000000
4184 4.442971 10.163130 1.000000
4185 8.884514 10.156559 1.000000
4186 3.414698 10.149365 1.000000
4187 8.414738 10.142446 1.000000
4188 10.431355 10.142213 1.000000
4189 1.501297 10.136722 1.000000
4190 6.318890 10.135868 1.000000
4191 9.160641 10.130878 1.000000
4192 6.003891 10.116093 1.000000
4193 2.769227 10.114337 1.000000
4194 4.197499 10.107721 1.000000
4195 7.012416 10.104421 1.000000
4196 10.830030 10.102370 1.000000
4197 9.406429 10.090859 1.000000
4198 5.145894 10.081837 1.000000
4199 8.146001 10.073006 1.000000
4200 1.311209 10.062027 1.000000
4201 2.484156 10.061824 1.000000
4202 6.723507 10.060910 1.000000
4203 3.087785 10.058240 1.000000
4204 1.882471 10.045833 1.000000
4205 9.994400 10.042541 1.000000
4206 3.950603 10.032996 1.000000
4207 7.857960 10.020582 1.000000
4208 9.669943 10.014049 1.000000
4209 10.648361 10.009461 1.000000
4210 4.710494 10.002054 1.000000
4211 11.000000 10.000000 1.000000
4212 2.177065 9.988302 1.000000
4213 3.641569 9.987143 1.000000
4214 5.548835 9.986371 1.000000
4215 7.558362 9.985597 1.000000
4216 7.255295 9.961689 1.000000
4217 1.637476 9.955469 1.000000
4218 8.647722 9.955065 1.000000
4219 6.472015 9.940362 1.000000
4220 10.241706 9.939705 1.000000
4221 1.165021 9.938210 1.000000
4222 6.155917 9.908618 1.000000
4223 5.832502 9.907753 1.000000
4224 10.461933 9.907479 1.000000
4225 8.960749 9.902864 1.000000
4226 3.326998 9.901931 1.000000
4227 4.974383 9.899499 1.000000
4228 4.442674 9.898737 1.000000
4229 10.826087 9.895498 1.000000
4230 1.412462 9.886150 1.000000
4231 8.355610 9.859788 1.000000
4232 6.916550 9.857035 1.000000
4233 2.968724 9.847146 1.000000
4234 5.304162 9.843663 1.000000
4235 9.232011 9.827932 1.000000
4236 2.680588 9.819437 1.000000
4237 1.885326 9.814192 1.000000
4238 4.167366 9.814100 1.000000
4239 11.000000 9.800000 1.000000
4240 8.041169 9.793412 1.000000
4241 9.847136 9.791021 1.000000
4242 9.502419 9.790295 1.000000
4243 2.391507 9.784903 1.000000
4244 10.636003 9.769417 1.000000
4245 1.212787 9.759273 1.000000
4246 3.863577 9.751865 1.000000
4247 10.101732 9.741070 1.000000
4248 7.727304 9.738762 1.000000
4249 6.647994 9.732134 1.000000
4250 4.725600 9.723448 1.000000
4251 1.640924 9.716235 1.000000
4252 7.426647 9.710154 1.000000
4253 5.625188 9.703812 1.000000
4254 10.825523 9.693526 1.000000
4255 3.557525 9.688962 1.000000
4256 10.393788 9.688744 1.000000
4257 7.118142 9.687857 1.000000
4258 1.425259 9.684408 1.000000
4259 2.096723 9.679334 1.000000
4260 8.791872 9.675748 1.000000
4261 6.311295 9.671577 1.000000
4262 5.972371 9.662478 1.000000
4263 3.218409 9.637052 1.000000
4264 5.063321 9.630844 1.000000
4265 8.533991 9.610412 1.000000
4266 4.440712 9.602898 1.000000
4267 11.000000 9.600000 1.000000
4268 1.156448 9.596357 1.000000
4269 9.064282 9.561354 1.000000
4270 10.616959 9.554724 1.000000
4271 9.686649 9.553616 1.000000
4272 8.223233 9.550358 1.000000
4273 2.892461 9.544958 1.000000
4274 5.387282 9.539674 1.000000
4275 1.841648 9.538121 1.000000
4276 10.206417 9.527047 1.000000
4277 1.349487 9.524172 1.000000
4278 4.127622 9.511019 1.000000
4279 6.851910 9.501368 1.000000
4280 10.812636 9.500952 1.000000
4281 2.582961 9.494790 1.000000
4282 9.356895 9.482462 1.000000
4283 7.887678 9.479550 1.000000
4284 2.299006 9.471806 1.000000
4285 1.593353 9.467492 1.000000
4286 9.938333 9.464774 1.000000
4287 4.781819 9.438944 1.000000
4288 6.494338 9.430180 1.000000
4289 3.806388 9.430092 1.000000
4290 10.433938 9.430005 1.000000
4291 5.761468 9.413200 1.000000
4292 7.240081 9.409602 1.000000
4293 7.554060 9.409430 1.000000
4294 1.171400 9.407053 1.000000
4295 11.000000 9.400000 1.000000
4296 6.122104 9.383100 1.000000
4297 3.466824 9.374828 1.000000
4298 2.062204 9.353240 1.000000
4299 8.804082 9.329165 1.000000
4300 1.388089 9.327646 1.000000
4301 10.833098 9.315821 1.000000
4302 5.126177 9.310761 1.000000
4303 10.642194 9.310009 1.000000
4304 3.122899 9.307982 1.000000
4305 4.452759 9.297225 1.000000
4306 10.191173 9.287879 1.000000
4307 8.463797 9.275986 1.000000
4308 1.810563 9.270639 1.000000
4309 9.606632 9.268173 1.000000
4310 1.171727 9.231325 1.000000
4311 5.491648 9.228988 1.000000
4312 8.112325 9.220285 1.000000
4313 1.591819 9.216862 1.000000
4314 7.010978 9.207046 1.000000
4315 2.741312 9.205846 1.000000
4316 9.137430 9.200066 1.000000
4317 11.000000 9.200000 1.000000
4318 10.431446 9.192027 1.000000
4319 9.928849 9.184964 1.000000
4320 4.111607 9.178064 1.000000
4321 2.365825 9.174078 1.000000
4322 6.674893 9.155325 1.000000
4323 7.733842 9.130394 1.000000
4324 10.822031 9.126025 1.000000
4325 1.356619 9.124697 1.000000
4326 4.795897 9.114100 1.000000
4327 6.295944 9.101111 1.000000
4328 3.750694 9.085026 1.000000
4329 5.890210 9.074659 1.000000
4330 2.052518 9.073876 1.000000
4331 10.637101 9.068530 1.000000
4332 10.199022 9.040428 1.000000
4333 7.356095 9.039869 1.000000
4334 1.167033 9.033282 1.000000
4335 3.389972 9.018062 1.000000
4336 1.553378 9.000014 1.000000
4337 11.000000 9.000000 1.000000
4338 1.796792 8.999707 1.000000
4339 9.411628 8.982567 1.000000
4340 9.712497 8.979766 1.000000
4341 8.746099 8.979461 1.000000
4342 3.009296 8.970156 1.000000
4343 5.157707 8.967029 1.000000
4344 10.434153 8.951290 1.000000
4345 4.447227 8.946577 1.000000
4346 10.831642 8.921809 1.000000
4347 2.582167 8.920757 1.000000
4348 1.362377 8.905609 1.000000
4349 8.391585 8.903760 1.000000
4350 5.520332 8.900550 1.000000
4351 9.989943 8.877651 1.000000
4352 8.013913 8.870313 1.000000
4353 6.979281 8.861145 1.000000
4354 2.238859 8.860797 1.000000
4355 10.655795 8.833096 1.000000
4356 1.166392 8.832761 1.000000
4357 9.079249 8.830290 1.000000
4358 4.056166 8.808549 1.000000
4359 6.565211 8.800931 1.000000
4360 11.000000 8.800000 1.000000
4361 1.621422 8.792457 1.000000
4362 1.941434 8.769123 1.000000
4363 10.235487 8.767619 1.000000
4364 6.148865 8.746371 1.000000
4365 7.618573 8.744870 1.000000
4366 4.827195 8.744294 1.000000
4367 10.478675 8.721165 1.000000
4368 1.367840 8.711873 1.000000
4369 10.820543 8.701089 1.000000
4370 9.750846 8.695514 1.000000
4371 3.652672 8.689115 1.000000
4372 2.846417 8.679151 1.000000
4373 5.757651 8.664938 1.000000
4374 9.423598 8.640343 1.000000
4375 3.253008 8.629723 1.000000
4376 1.159906 8.627744 1.000000
4377 2.473234 8.620340 1.000000
4378 11.000000 8.600000 1.000000
4379 1.738029 8.596794 1.000000
4380 7.271611 8.587290 1.000000
4381 10.041273 8.578248 1.000000
4382 4.413540 8.572445 1.000000
4383 5.256669 8.571028 1.000000
4384 10.627965 8.568892 1.000000
4385 1.507483 8.560403 1.000000
4386 8.741708 8.556311 1.000000
4387 2.182190 8.553880 1.000000
4388 10.347218 8.531255 1.000000
4389 8.330674 8.513577 1.000000
4390 10.818057 8.493151 1.000000
4391 7.944789 8.488003 1.000000
4392 1.283757 8.486563 1.000000
4393 9.125582 8.475145 1.000000
4394 6.842634 8.474873 1.000000
4395 1.942062 8.452957 1.000000
4396 9.668211 8.420313 1.000000
4397 3.964098 8.402494 1.000000
4398 11.000000 8.400000 1.000000
4399 6.417390 8.396357 1.000000
4400 2.715155 8.376386 1.000000
4401 10.539186 8.363695 1.000000
4402 4.834886 8.362408 1.000000
4403 1.488288 8.353470 1.000000
4404 1.152774 8.344664 1.000000
4405 1.705191 8.342855 1.000000
4406 10.241423 8.334040 1.000000
4407 9.963043 8.333621 1.000000
4408 3.058724 8.314564 1.000000
4409 10.791924 8.307549 1.000000
4410 6.012504 8.300412 1.000000
4411 2.410787 8.287961 1.000000
4412 5.597949 8.287920 1.000000
4413 7.598491 8.265822 1.000000
4414 1.331209 8.250753 1.000000
4415 3.499202 8.249466 1.000000
4416 9.377781 8.234699 1.000000
4417 2.118772 8.234015 1.000000
4418 11.000000 8.200000 1.000000
4419 4.378946 8.176176 1.000000
4420 8.951495 8.165756 1.000000
4421 10.624291 8.152532 1.000000
4422 1.858853 8.150947 1.000000
4423 7.142147 8.144525 1.000000
4424 10.388451 8.143754 1.000000
4425 8.537051 8.140713 1.000000
4426 9.747178 8.133582 1.000000
4427 1.575743 8.120211 1.000000
4428 1.157312 8.118172 1.000000
4429 5.238831 8.100634 1.000000
4430 10.822831 8.100210 1.000000
4431 10.093245 8.083909 1.000000
4432 8.052933 8.063565 1.000000
4433 1.354457 8.053479 1.000000
4434 2.720268 8.050544 1.000000
4435 6.687044 8.024810 1.000000
4436 11.000000 8.000000 1.000000
4437 2.332179 7.995555 1.000000
4438 3.129056 7.970991 1.000000
4439 3.924437 7.966323 1.000000
4440 10.574705 7.936018 1.000000
4441 2.042680 7.931716 1.000000
4442 1.735589 7.926527 1.000000
4443 9.516478 7.921376 1.000000
4444 4.813710 7.917181 1.000000
4445 10.328865 7.912207 1.000000
4446 6.221657 7.911347 1.000000
4447 10.800003 7.909210 1.000000
4448 1.202914 7.905263 1.000000
4449 1.465112 7.889067 1.000000
4450 9.180991 7.887720 1.000000
4451 9.864691 7.871930 1.000000
4452 5.735143 7.833259 1.000000
4453 7.507330 7.826818 1.000000
4454 3.535570 7.811269 1.000000
4455 11.000000 7.800000 1.000000
4456 10.111189 7.793687 1.000000
4457 8.780659 7.780671 1.000000
4458 2.500322 7.776062 1.000000
4459 4.385094 7.726853 1.000000
4460 1.170357 7.720536 1.000000
4461 8.364306 7.716529 1.000000
4462 10.653144 7.715219 1.000000
4463 10.840995 7.712358 1.000000
4464 1.613518 7.710678 1.000000
4465 1.895017 7.708408 1.000000
4466 2.822100 7.704007 1.000000
4467 1.361632 7.701461 1.000000
4468 10.438135 7.696162 1.000000
4469 2.203169 7.660915 1.000000
4470 7.027132 7.654730 1.000000
4471 5.288823 7.647211 1.000000
4472 9.684186 7.644010 1.000000
4473 7.887220 7.600047 1.000000
4474 11.000000 7.600000 1.000000
4475 3.159629 7.581099 1.000000
4476 10.216171 7.576747 1.000000
4477 9.391667 7.572986 1.000000
4478 6.564618 7.551990 1.000000
4479 1.155392 7.528867 1.000000
4480 9.939022 7.528704 1.000000
4481 10.817148 7.517021 1.000000
4482 9.052408 7.516667 1.000000
4483 3.992133 7.496833 1.000000
4484 1.736845 7.493704 1.000000
4485 1.507288 7.490518 1.000000
4486 10.613975 7.488156 1.000000
4487 1.315028 7.486375 1.000000
4488 2.500708 7.474663 1.000000
4489 4.872049 7.471020 1.000000
4490 6.078272 7.451016 1.000000
4491 2.001251 7.447022 1.000000
4492 10.398069 7.431213 1.000000
4493 3.528137 7.405444 1.000000
4494 11.000000 7.400000 1.000000
4495 7.408567 7.353926 1.000000
4496 8.653916 7.351615 1.000000
4497 2.815269 7.340751 1.000000
4498 5.611447 7.323704 1.000000
4499 9.680731 7.322231 1.000000
4500 10.803019 7.319747 1.000000
4501 2.240075 7.316358 1.000000
4502 1.158047 7.312906 1.000000
4503 10.110900 7.310840 1.000000
4504 4.499240 7.295840 1.000000
4505 1.350586 7.276610 1.000000
4506 8.256193 7.268876 1.000000
4507 1.569586 7.260571 1.000000
4508 1.793338 7.253847 1.000000
4509 10.591041 7.248828 1.000000
4510 9.367341 7.234214 1.000000
4511 10.341245 7.211477 1.000000
4512 11.000000 7.200000 1.000000
4513 3.144345 7.193150 1.000000
4514 9.007478 7.165104 1.000000
4515 6.937853 7.159967 1.000000
4516 9.895823 7.140057 1.000000
4517 2.514308 7.138317 1.000000
4518 1.998016 7.136203 1.000000
4519 5.143326 7.124287 1.000000
4520 10.825182 7.124287 1.000000
4521 1.199132 7.108387 1.000000
4522 7.809797 7.106392 1.000000
4523 6.483621 7.105962 1.000000
4524 3.822459 7.090631 1.000000
4525 1.438644 7.073175 1.000000
4526 10.652954 7.038777 1.000000
4527 1.707948 7.018626 1.000000
4528 10.443447 7.008761 1.000000
4529 10.172785 7.004891 1.000000
4530 11.000000 7.000000 1.000000
4531 2.239309 6.986449 1.000000
4532 4.230575 6.986298 1.000000
4533 5.996655 6.980750 1.000000
4534 2.799853 6.964439 1.000000
4535 9.594851 6.964245 1.000000
4536 3.451965 6.947416 1.000000
4537 1.148478 6.918253 1.000000
4538 8.732227 6.915320 1.000000
4539 10.828119 6.901516 1.000000
4540 9.220434 6.896106 1.000000
4541 1.317746 6.893187 1.000000
4542 1.955537 6.873845 1.000000
4543 7.329603 6.870909 1.000000
4544 4.707184 6.867179 1.000000
4545 1.527390 6.860895 1.000000
4546 9.914302 6.857080 1.000000
4547 5.561847 6.843676 1.000000
4548 8.275283 6.834065 1.000000
4549 10.624293 6.816028 1.000000
4550 11.000000 6.800000 1.000000
4551 2.487622 6.794206 1.000000
4552 3.093252 6.792531 1.000000
4553 10.387180 6.783222 1.000000
4554 1.750173 6.745964 1.000000
4555 10.145131 6.723483 1.000000
4556 1.155791 6.709893 1.000000
4557 6.392868 6.690141 1.000000
4558 10.812185 6.687057 1.000000
4559 2.176872 6.683058 1.000000
4560 1.333602 6.679307 1.000000
4561 7.776539 6.652296 1.000000
4562 6.852555 6.651274 1.000000
4563 9.748169 6.648338 1.000000
4564 3.834466 6.641436 1.000000
4565 5.124255 6.639023 1.000000
4566 1.540887 6.638181 1.000000
4567 9.434812 6.626231 1.000000
4568 11.000000 6.600000 1.000000
4569 10.580955 6.597329 1.000000
4570 9.042826 6.593922 1.000000
4571 2.738756 6.584829 1.000000
4572 1.936056 6.565043 1.000000
4573 4.261574 6.532894 1.000000
4574 3.439531 6.530278 1.000000
4575 8.632195 6.529112 1.000000
4576 10.328393 6.527751 1.000000
4577 1.184028 6.501848 1.000000
4578 10.012649 6.492413 1.000000
4579 10.784298 6.483333 1.000000
4580 2.390863 6.479329 1.000000
4581 5.974428 6.471584 1.000000
4582 1.688227 6.470892 1.000000
4583 1.415102 6.467063 1.000000
4584 3.044138 6.441308 1.000000
4585 11.000000 6.400000 1.000000
4586 7.295874 6.397343 1.000000
4587 4.685670 6.385462 1.000000
4588 5.555470 6.382876 1.000000
4589 10.535734 6.370882 1.000000
4590 8.186733 6.368248 1.000000
4591 9.688386 6.353654 1.000000
4592 2.126332 6.348081 1.000000
4593 1.320149 6.312626 1.000000
4594 10.244902 6.299107 1.000000
4595 9.345902 6.296620 1.000000
4596 10.817932 6.294816 1.000000
4597 1.861638 6.293164 1.000000
4598 1.149152 6.290877 1.000000
4599 1.568839 6.277165 1.000000
4600 2.616651 6.267089 1.000000
4601 6.445993 6.255264 1.000000
4602 8.974847 6.229594 1.000000
4603 9.956369 6.211348 1.000000
4604 3.782465 6.200376 1.000000
4605 11.000000 6.200000 1.000000
4606 10.647618 6.188794 1.000000
4607 7.724264 6.181152 1.000000
4608 5.114011 6.171021 1.000000
4609 3.323258 6.154842 1.000000
4610 2.904374 6.148460 1.000000
4611 1.356556 6.137773 1.000000
4612 2.338263 6.132929 1.000000
4613 8.564112 6.130410 1.000000
4614 6.885489 6.120311 1.000000
4615 10.427738 6.118789 1.000000
4616 4.247862 6.088495 1.000000
4617 1.759165 6.088098 1.000000
4618 1.167667 6.085798 1.000000
4619 10.825574 6.069189 1.000000
4620 2.037635 6.052339 1.000000
4621 1.546973 6.042372 1.000000
4622 9.636556 6.038833 1.000000
4623 10.189872 6.021138 1.000000
4624 11.000000 6.000000 1.000000
4625 6.036063 5.972869 1.000000
4626 5.575405 5.965721 1.000000
4627 10.617858 5.960673 1.000000
4628 9.300492 5.948146 1.000000
4629 9.918969 5.930356 1.000000
4630 1.341552 5.929973 1.000000
4631 4.704483 5.914479 1.000000
4632 2.631761 5.910933 1.000000
4633 7.291992 5.877542 1.000000
4634 1.159054 5.876391 1.000000
4635 8.136031 5.870231 1.000000
4636 1.800523 5.862278 1.000000
4637 8.941478 5.859987 1.000000
4638 2.289369 5.855113 1.000000
4639 10.814525 5.852199 1.000000
4640 10.398287 5.842324 1.000000
4641 3.031601 5.842061 1.000000
4642 1.570638 5.837172 1.000000
4643 3.458677 5.820699 1.000000
4644 11.000000 5.800000 1.000000
4645 6.509644 5.773976 1.000000
4646 2.027713 5.756552 1.000000
4647 3.877411 5.748395 1.000000
4648 8.559477 5.746410 1.000000
4649 1.349273 5.734565 1.000000
4650 10.166652 5.734274 1.000000
4651 10.606318 5.730172 1.000000
4652 5.174292 5.711459 1.000000
4653 7.687632 5.708757 1.000000
4654 9.571046 5.700124 1.000000
4655 1.156114 5.671242 1.000000
4656 9.876680 5.670426 1.000000
4657 10.826286 5.633743 1.000000
4658 1.547560 5.624040 1.000000
4659 4.326663 5.621407 1.000000
4660 2.482258 5.615439 1.000000
4661 1.760758 5.614854 1.000000
4662 11.000000 5.600000 1.000000
4663 9.217339 5.577820 1.000000
4664 2.788428 5.572300 1.000000
4665 6.959143 5.569855 1.000000
4666 10.389497 5.556910 1.000000
4667 5.685300 5.552708 1.000000
4668 1.316982 5.533691 1.000000
4669 2.224119 5.528070 1.000000
4670 10.638298 5.523952 1.000000
4671 3.168975 5.498210 1.000000
4672 1.961961 5.480258 1.000000
4673 6.125775 5.464087 1.000000
4674 10.107953 5.462652 1.000000
4675 8.842497 5.460454 1.000000
4676 1.153430 5.451533 1.000000
4677 4.790747 5.450333 1.000000
4678 1.509698 5.431448 1.000000
4679 8.362504 5.411139 1.000000
4680 3.550795 5.410777 1.000000
4681 9.798835 5.400264 1.000000
4682 11.000000 5.400000 1.000000
4683 10.815996 5.392658 1.000000
4684 9.485231 5.361642 1.000000
4685 1.709642 5.361169 1.000000
4686 7.933677 5.351086 1.000000
4687 10.566449 5.333505 1.000000
4688 1.334015 5.314404 1.000000
4689 7.413764 5.307457 1.000000
4690 2.516538 5.302934 1.000000
4691 10.309408 5.289103 1.000000
4692 5.289859 5.276360 1.000000
4693 3.976657 5.271501 1.000000
4694 6.560175 5.270096 1.000000
4695 2.193184 5.260407 1.000000
4696 1.148344 5.244172 1.000000
4697 2.885607 5.238719 1.000000
4698 1.910447 5.229302 1.000000
4699 11.000000 5.200000 1.000000
4700 1.540043 5.195442 1.000000
4701 9.119260 5.190372 1.000000
4702 10.761214 5.183112 1.000000
4703 10.025967 5.175272 1.000000
4704 4.412473 5.162048 1.000000
4705 10.503406 5.117410 1.000000
4706 1.310258 5.115936 1.000000
4707 8.684203 5.108049 1.000000
4708 3.234084 5.098037 1.000000
4709 9.742738 5.092120 1.000000
4710 5.741345 5.086358 1.000000
4711 1.733719 5.060252 1.000000
4712 6.993425 5.057852 1.000000
4713 9.422258 5.043397 1.000000
4714 1.137873 5.024443 1.000000
4715 2.330933 5.020363 1.000000
4716 10.229376 5.019196 1.000000
4717 4.902661 5.013059 1.000000
4718 2.022255 5.005032 1.000000
4719 2.669032 5.000872 1.000000
4720 11.000000 5.000000 1.000000
4721 10.850561 4.991747 1.000000
4722 3.635585 4.991513 1.000000
4723 1.479683 4.990246 1.000000
4724 8.279568 4.964846 1.000000
4725 6.159273 4.952050 1.000000
4726 10.666551 4.949680 1.000000
4727 7.809799 4.909354 1.000000
4728 1.280264 4.897780 1.000000
4729 10.445182 4.883690 1.000000
4730 9.945408 4.846528 1.000000
4731 8.958120 4.840752 1.000000
4732 1.634376 4.832885 1.000000
4733 2.953877 4.826597 1.000000
4734 1.864936 4.809585 1.000000
4735 5.336095 4.800308 1.000000
4736 11.000000 4.800000 1.000000
4737 1.144799 4.791914 1.000000
4738 9.625154 4.778763 1.000000
4739 7.389892 4.775236 1.000000
4740 4.072940 4.773794 1.000000
4741 2.162734 4.771016 1.000000
4742 10.835242 4.770028 1.000000
4743 6.579271 4.766766 1.000000
4744 2.504829 4.761215 1.000000
4745 1.415082 4.760985 1.000000
4746 9.263052 4.754616 1.000000
4747 10.206359 4.751634 1.000000
4748 4.519206 4.740584 1.000000
4749 10.649324 4.714890 1.000000
4750 3.310195 4.689790 1.000000
4751 8.630115 4.658463 1.000000
4752 10.444651 4.651208 1.000000
4753 1.290088 4.637722 1.000000
4754 1.558641 4.600835 1.000000
4755 11.000000 4.600000 1.000000
4756 5.749324 4.590955 1.000000
4757 1.140552 4.584984 1.000000
4758 1.767808 4.581591 1.000000
4759 2.737719 4.573282 1.000000
4760 3.670619 4.569263 1.000000
4761 2.010422 4.554600 1.000000
4762 10.813306 4.548310 1.000000
4763 2.341954 4.543093 1.000000
4764 10.042456 4.536742 1.000000
4765 4.923556 4.534559 1.000000
4766 6.984000 4.533659 1.000000
4767 8.210384 4.528476 1.000000
4768 9.761192 4.527416 1.000000
4769 10.313589 4.478226 1.000000
4770 1.374051 4.477246 1.000000
4771 10.600448 4.471939 1.000000
4772 9.411634 4.470082 1.000000
4773 6.156853 4.450253 1.000000
4774 9.006711 4.427077 1.000000
4775 3.107359 4.420755 1.000000
4776 1.150586 4.413676 1.000000
4777 7.773099 4.413441 1.000000
4778 11.000000 4.400000 1.000000
4779 1.552510 4.366948 1.000000
4780 1.747274 4.360967 1.000000
4781 10.829916 4.344639 1.000000
4782 4.422261 4.339125 1.000000
4783 2.179764 4.320254 1.000000
4784 5.324481 4.311936 1.000000
4785 1.287180 4.304919 1.000000
4786 2.500573 4.300174 1.000000
4787 1.942920 4.282618 1.000000
4788 3.987438 4.276555 1.000000
4789 10.445111 4.269791 1.000000
4790 6.566732 4.263620 1.000000
4791 10.180113 4.262513 1.000000
4792 10.663312 4.261020 1.000000
4793 8.598339 4.254117 1.000000
4794 9.912039 4.252575 1.000000
4795 7.366119 4.243171 1.000000
4796 2.807406 4.237510 1.000000
4797 3.498183 4.214082 1.000000
4798 9.613921 4.209908 1.000000
4799 1.451903 4.206637 1.000000
4800 11.000000 4.200000 1.000000
4801 1.127939 4.190232 1.000000
4802 9.268321 4.139215 1.000000
4803 1.691132 4.121096 1.000000
4804 10.829225 4.116005 1.000000
4805 4.838258 4.099275 1.000000
4806 5.736549 4.084555 1.000000
4807 1.259849 4.081350 1.000000
4808 2.231404 4.071020 1.000000
4809 8.167558 4.067069 1.000000
4810 10.607730 4.058899 1.000000
4811 1.946414 4.053604 1.000000
4812 10.357592 4.043545 1.000000
4813 3.146315 4.034788 1.000000
4814 8.913514 4.014274 1.000000
4815 6.960443 4.011534 1.000000
4816 1.464975 4.007251 1.000000
4817 10.094347 4.000905 1.000000
4818 11.000000 4.000000 1.000000
4819 2.512036 3.984610 1.000000
4820 6.140099 3.955833 1.000000
4821 9.819486 3.948658 1.000000
4822 1.140001 3.943691 1.000000
4823 10.789348 3.912298 1.000000
4824 2.808888 3.905567 1.000000
4825 1.668495 3.899203 1.000000
4826 7.741460 3.897679 1.000000
4827 4.353738 3.896236 1.000000
4828 9.521459 3.875687 1.000000
4829 3.858402 3.869192 1.000000
4830 1.317040 3.864132 1.000000
4831 10.535963 3.860564 1.000000
4832 5.290238 3.850940 1.000000
4833 1.889169 3.835056 1.000000
4834 8.516208 3.822284 1.000000
4835 2.169059 3.816798 1.000000
4836 11.000000 3.800000 1.000000
4837 10.280563 3.794239 1.000000
4838 3.449446 3.775467 1.000000
4839 6.546939 3.762379 1.000000
4840 1.508259 3.761669 1.000000
4841 9.205173 3.759407 1.000000
4842 1.159494 3.729447 1.000000
4843 10.846563 3.725355 1.000000
4844 7.339748 3.721488 1.000000
4845 2.426307 3.717975 1.000000
4846 10.023892 3.714284 1.000000
4847 10.665279 3.695005 1.000000
4848 4.849944 3.683293 1.000000
4849 1.748764 3.642068 1.000000
4850 1.336218 3.641439 1.000000
4851 3.074451 3.634472 1.000000
4852 9.754076 3.625457 1.000000
4853 10.446516 3.624259 1.000000
4854 2.718617 3.604671 1.000000
4855 8.866776 3.601729 1.000000
4856 11.000000 3.600000 1.000000
4857 2.034081 3.592901 1.000000
4858 5.666311 3.591215 1.000000
4859 8.085767 3.569585 1.000000
4860 1.557731 3.546844 1.000000
4861 6.945968 3.532989 1.000000
4862 1.133788 3.524393 1.000000
4863 6.122255 3.521015 1.000000
4864 10.825907 3.520743 1.000000
4865 9.463216 3.515494 1.000000
4866 4.492197 3.512373 1.000000
4867 10.210810 3.510925 1.000000
4868 4.091785 3.487615 1.000000
4869 2.284028 3.471724 1.000000
4870 10.631076 3.468902 1.000000
4871 1.290888 3.461133 1.000000
4872 1.831599 3.424566 1.000000
4873 5.203527 3.422332 1.000000
4874 7.688817 3.419272 1.000000
4875 3.710417 3.417204 1.000000
4876 8.502022 3.402809 1.000000
4877 9.974612 3.402390 1.000000
4878 11.000000 3.400000 1.000000
4879 1.435446 3.389482 1.000000
4880 10.412492 3.381853 1.000000
4881 9.149876 3.363107 1.000000
4882 2.560634 3.362389 1.000000
4883 3.320663 3.349728 1.000000
4884 6.556095 3.338377 1.000000
4885 10.828605 3.321073 1.000000
4886 1.632482 3.308911 1.000000
4887 1.185121 3.305871 1.000000
4888 2.070773 3.292577 1.000000
4889 9.706333 3.287115 1.000000
4890 2.924925 3.271772 1.000000
4891 7.311407 3.269025 1.000000
4892 10.640256 3.254527 1.000000
4893 4.796415 3.241020 1.000000
4894 1.388442 3.209073 1.000000
4895 10.191806 3.208510 1.000000
4896 11.000000 3.200000 1.000000
4897 5.825615 3.199320 1.000000
4898 8.808057 3.169180 1.000000
4899 8.219395 3.165891 1.000000
4900 10.433010 3.163964 1.000000
4901 1.831791 3.158088 1.000000
4902 9.423689 3.146791 1.000000
4903 5.440198 3.145998 1.000000
4904 4.378733 3.145288 1.000000
4905 2.322683 3.138257 1.000000
4906 1.140386 3.132218 1.000000
4907 6.941677 3.117387 1.000000
4908 10.827131 3.114919 1.000000
4909 6.233387 3.114020 1.000000
4910 9.935961 3.092250 1.000000
4911 7.907224 3.085408 1.000000
4912 1.596288 3.080068 1.000000
4913 3.989098 3.078768 1.000000
4914 1.284281 3.060757 1.000000
4915 2.622521 3.060326 1.000000
4916 3.614152 3.034121 1.000000
4917 10.632260 3.032926 1.000000
4918 2.045145 3.006750 1.000000
4919 11.000000 3.000000 1.000000
4920 5.046046 2.999236 1.000000
4921 3.229787 2.987800 1.000000
4922 9.110958 2.968915 1.000000
4923 7.589387 2.967585 1.000000
4924 10.385329 2.963442 1.000000
4925 1.447028 2.953539 1.000000
4926 8.489540 2.940604 1.000000
4927 6.616242 2.937330 1.000000
4928 9.671733 2.934329 1.000000
4929 10.151555 2.919475 1.000000
4930 1.146526 2.911260 1.000000
4931 10.823001 2.909679 1.000000
4932 1.795574 2.903417 1.000000
4933 2.898490 2.876402 1.000000
4934 4.643403 2.863336 1.000000
4935 7.250381 2.860027 1.000000
4936 2.279769 2.852770 1.000000
4937 5.964023 2.839256 1.000000
4938 10.610474 2.830664 1.000000
4939 1.307209 2.822184 1.000000
4940 5.607419 2.820145 1.000000
4941 4.264598 2.804867 1.000000
4942 11.000000 2.800000 1.000000
4943 1.595055 2.799879 1.000000
4944 9.395026 2.776499 1.000000
4945 9.900292 2.772758 1.000000
4946 2.543087 2.765912 1.000000
4947 8.767120 2.762104 1.000000
4948 8.158715 2.761319 1.000000
4949 5.251130 2.746236 1.000000
4950 6.333807 2.740780 1.000000
4951 10.386298 2.736655 1.000000
4952 3.862133 2.722185 1.000000
4953 2.003110 2.721378 1.000000
4954 6.926406 2.717876 1.000000
4955 10.818196 2.713422 1.000000
4956 3.487397 2.708633 1.000000
4957 1.172754 2.693401 1.000000
4958 1.422777 2.680809 1.000000
4959 7.857049 2.669575 1.000000
4960 10.155618 2.643237 1.000000
4961 4.878745 2.633116 1.000000
4962 1.766453 2.627959 1.000000
4963 3.158737 2.624145 1.000000
4964 10.616041 2.623810 1.000000
4965 9.048168 2.607700 1.000000
4966 11.000000 2.600000 1.000000
4967 7.531614 2.594238 1.000000
4968 8.437456 2.564298 1.000000
4969 9.636715 2.563954 1.000000
4970 2.236801 2.560240 1.000000
4971 6.632949 2.544352 1.000000
4972 2.826450 2.537831 1.000000
4973 4.149580 2.526824 1.000000
4974 1.566163 2.521324 1.000000
4975 10.822062 2.515783 1.000000
4976 6.093835 2.512720 1.000000
4977 1.325169 2.511300 1.000000
4978 4.503488 2.506821 1.000000
4979 5.771603 2.506292 1.000000
4980 1.145761 2.505464 1.000000
4981 10.402022 2.503957 1.000000
4982 7.211712 2.495713 1.000000
4983 9.914631 2.482826 1.000000
4984 5.437285 2.474141 1.000000
4985 2.510017 2.457851 1.000000
4986 9.296752 2.439815 1.000000
4987 1.954435 2.435937 1.000000
4988 3.642244 2.428677 1.000000
4989 8.743745 2.416338 1.000000
4990 10.623651 2.415075 1.000000
4991 5.110588 2.400910 1.000000
4992 11.000000 2.400000 1.000000
4993 8.132402 2.390648 1.000000
4994 10.187866 2.378594 1.000000
4995 6.365172 2.367985 1.000000
4996 3.364072 2.359172 1.000000
4997 6.909783 2.355989 1.000000
4998 1.717689 2.353037 1.000000
4999 3.892411 2.343748 1.000000
5000 7.796940 2.338767 1.000000
5001 1.441464 2.332535 1.000000
5002 1.198188 2.323682 1.000000
5003 10.825017 2.317621 1.000000
5004 4.771257 2.308839 1.000000
5005 3.062694 2.307345 1.000000
5006 2.184380 2.283421 1.000000
5007 7.481034 2.269159 1.000000
5008 9.018050 2.264828 1.000000
5009 10.423365 2.262197 1.000000
5010 8.478443 2.246491 1.000000
5011 4.214180 2.246121 1.000000
5012 9.461194 2.244262 1.000000
5013 5.986766 2.232100 1.000000
5014 2.751046 2.226158 1.000000
5015 9.721870 2.219295 1.000000
5016 5.624958 2.218187 1.000000
5017 9.983131 2.211160 1.000000
5018 10.633380 2.205683 1.000000
5019 11.000000 2.200000 1.000000
5020 6.635232 2.188589 1.000000
5021 2.462259 2.178455 1.000000
5022 7.182813 2.173552 1.000000
5023 4.480748 2.163270 1.000000
5024 1.616626 2.162302 1.000000
5025 1.356847 2.155209 1.000000
5026 1.899692 2.153644 1.000000
5027 5.323644 2.152849 1.000000
5028 1.163289 2.144050 1.000000
5029 10.836358 2.119813 1.000000
5030 6.277903 2.108514 1.000000
5031 10.237848 2.106623 1.000000
5032 3.607297 2.104710 1.000000
5033 5.004248 2.102970 1.000000
5034 8.787980 2.091800 1.000000
5035 8.247538 2.087806 1.000000
5036 7.969028 2.085125 1.000000
5037 9.206537 2.080787 1.000000
5038 3.314770 2.079785 1.000000
5039 3.918354 2.076521 1.000000
5040 2.989949 2.044721 1.000000
5041 6.914238 2.037155 1.000000
5042 7.682869 2.030352 1.000000
5043 2.159887 2.018215 1.000000
5044 5.779414 2.017590 1.000000
5045 10.459461 2.010091 1.000000
5046 10.661232 2.004601 1.000000
5047 11.000000 2.000000 1.000000
5048 4.705710 1.990272 1.000000
5049 1.505462 1.980105 1.000000
5050 9.493290 1.972255 1.000000
5051 9.995889 1.968196 1.000000
5052 7.408028 1.967167 1.000000
5053 4.208843 1.961394 1.000000
5054 1.150375 1.957655 1.000000
5055 8.540313 1.954234 1.000000
5056 6.506366 1.949415 1.000000
5057 2.413832 1.944651 1.000000
5058 1.316934 1.943920 1.000000
5059 2.705019 1.943672 1.000000
5060 1.745503 1.935925 1.000000
5061 6.045322 1.930083 1.000000
5062 9.752598 1.919726 1.000000
5063 10.843999 1.912599 1.000000
5064 5.507975 1.901684 1.000000
5065 5.210538 1.885530 1.000000
5066 9.003152 1.883781 1.000000
5067 7.148372 1.871727 1.000000
5068 3.200053 1.858724 1.000000
5069 1.971275 1.856905 1.000000
5070 4.430887 1.853676 1.000000
5071 6.739698 1.852706 1.000000
5072 10.246722 1.848491 1.000000
5073 3.718154 1.846135 1.000000
5074 4.924320 1.827283 1.000000
5075 8.096713 1.821608 1.000000
5076 3.986368 1.820042 1.000000
5077 8.343623 1.818238 1.000000
5078 9.281007 1.809660 1.000000
5079 10.653382 1.807210 1.000000
5080 6.287353 1.804628 1.000000
5081 7.843307 1.802521 1.000000
5082 3.455958 1.801658 1.000000
5083 11.000000 1.800000 1.000000
5084 8.738848 1.797834 1.000000
5085 2.952670 1.786712 1.000000
5086 1.546933 1.775024 1.000000
5087 5.792105 1.773424 1.000000
5088 10.458216 1.772443 1.000000
5089 1.158075 1.757707 1.000000
5090 1.343004 1.751116 1.000000
5091 2.233121 1.746812 1.000000
5092 7.585034 1.744091 1.000000
5093 2.517958 1.737346 1.000000
5094 9.995971 1.734044 1.000000
5095 9.552640 1.715907 1.000000
5096 10.833899 1.710480 1.000000
5097 6.957338 1.707801 1.000000
5098 4.653776 1.706950 1.000000
5099 7.350090 1.685599 1.000000
5100 6.534393 1.668720 1.000000
5101 6.056753 1.664759 1.000000
5102 2.758766 1.662358 1.000000
5103 1.762041 1.659149 1.000000
5104 4.176692 1.656880 1.000000
5105 5.351825 1.654300 1.000000
5106 9.779259 1.639294 1.000000
5107 3.206250 1.632726 1.000000
5108 8.499832 1.632137 1.000000
5109 5.102328 1.629461 1.000000
5110 1.994698 1.629104 1.000000
5111 5.590357 1.626060 1.000000
5112 9.142248 1.614399 1.000000
5113 8.925591 1.612494 1.000000
5114 3.887583 1.608556 1.000000
5115 10.218666 1.601333 1.000000
5116 11.000000 1.600000 1.000000
5117 3.633028 1.596771 1.000000
5118 4.415236 1.595791 1.000000
5119 10.642568 1.591340 1.000000
5120 8.243072 1.583264 1.000000
5121 7.994160 1.579556 1.000000
5122 4.852791 1.577049 1.000000
5123 7.158185 1.574428 1.000000
5124 6.764366 1.570092 1.000000
5125 1.159709 1.565836 1.000000
5126 9.382845 1.559767 1.000000
5127 6.307159 1.559583 1.000000
5128 1.336410 1.557507 1.000000
5129 1.532655 1.556895 1.000000
5130 7.738151 1.555652 1.000000
5131 8.708361 1.550255 1.000000
5132 10.430040 1.550165 1.000000
5133 2.981127 1.540702 1.000000
5134 2.382299 1.540490 1.000000
5135 5.845635 1.540114 1.000000
5136 10.829610 1.515857 1.000000
5137 3.401451 1.512658 1.000000
5138 10.001285 1.507622 1.000000
5139 2.162258 1.504027 1.000000
5140 2.603937 1.503451 1.000000
5141 7.477628 1.477347 1.000000
5142 9.616832 1.457003 1.000000
5143 4.621731 1.436260 1.000000
5144 1.897753 1.434393 1.000000
5145 6.093350 1.426844 1.000000
5146 6.537567 1.422217 1.000000
5147 6.987766 1.418323 1.000000
5148 4.013808 1.416575 1.000000
5149 5.236206 1.412638 1.000000
5150 1.701339 1.410090 1.000000
5151 4.220522 1.409410 1.000000
5152 5.446268 1.409303 1.000000
5153 11.000000 1.400000 1.000000
5154 3.194307 1.394090 1.000000
5155 2.782950 1.392382 1.000000
5156 5.024100 1.390664 1.000000
5157 8.366713 1.390293 1.000000
5158 3.780237 1.390243 1.000000
5159 9.017207 1.386515 1.000000
5160 5.662389 1.386280 1.000000
5161 9.810832 1.382461 1.000000
5162 9.231848 1.380541 1.000000
5163 10.635505 1.378257 1.000000
5164 7.258576 1.377702 1.000000
5165 10.224826 1.375689 1.000000
5166 1.152437 1.374091 1.000000
5167 8.571385 1.373484 1.000000
5168 8.134370 1.370468 1.000000
5169 7.904666 1.367541 1.000000
5170 1.325582 1.366401 1.000000
5171 4.423547 1.363783 1.000000
5172 8.809090 1.360865 1.000000
5173 3.554730 1.359476 1.000000
5174 6.756211 1.355095 1.000000
5175 4.813879 1.355019 1.000000
5176 7.671928 1.347165 1.000000
5177 10.436475 1.345685 1.000000
5178 6.313904 1.344045 1.000000
5179 1.511860 1.336590 1.000000
5180 9.457231 1.336515 1.000000
5181 5.894246 1.333421 1.000000
5182 2.304840 1.332786 1.000000
5183 10.832394 1.331627 1.000000
5184 2.063407 1.325846 1.000000
5185 2.530097 1.325596 1.000000
5186 2.987228 1.324909 1.000000
5187 10.024953 1.310477 1.000000
5188 3.342074 1.239464 1.000000
5189 7.466887 1.229515 1.000000
5190 1.830249 1.227449 1.000000
5191 9.679689 1.207323 1.000000
5192 7.096660 1.204391 1.000000
5193 6.110286 1.202155 1.000000
5194 6.505665 1.200307 1.000000
5195 11.000000 1.200000 1.000000
5196 2.742419 1.195467 1.000000
5197 4.104786 1.195339 1.000000
5198 3.908867 1.194752 1.000000
5199 5.315805 1.194370 1.000000
5200 5.512517 1.190147 1.000000
5201 5.119253 1.189836 1.000000
5202 6.904065 1.188343 1.000000
5203 4.514801 1.186960 1.000000
5204 4.700456 1.186944 1.000000
5205 8.274854 1.183269 1.000000
5206 9.099897 1.182699 1.000000
5207 3.708023 1.181795 1.000000
5208 5.712157 1.180218 1.000000
5209 4.301192 1.180063 1.000000
5210 1.141536 1.178813 1.000000
5211 8.687811 1.177925 1.000000
5212 10.657537 1.177515 1.000000
5213 8.478952 1.177201 1.000000
5214 7.857957 1.176184 1.000000
5215 8.064121 1.176161 1.000000
5216 10.284536 1.176130 1.000000
5217 9.297204 1.176074 1.000000
5218 1.311375 1.174648 1.000000
5219 8.900601 1.173386 1.000000
5220 4.917152 1.172670 1.000000
5221 1.674352 1.171272 1.000000
5222 6.693881 1.170056 1.000000
5223 3.148555 1.168909 1.000000
5224 9.875353 1.165656 1.000000
5225 7.290822 1.165399 1.000000
5226 10.480447 1.164785 1.000000
5227 2.166953 1.160669 1.000000
5228 3.507025 1.158561 1.000000
5229 1.486653 1.158318 1.000000
5230 2.929775 1.156475 1.000000
5231 2.366623 1.156462 1.000000
5232 7.655155 1.155801 1.000000
5233 6.306355 1.155469 1.000000
5234 9.501329 1.155331 1.000000
5235 10.096701 1.154297 1.000000
5236 5.917592 1.153588 1.000000
5237 2.564421 1.149925 1.000000
5238 10.841807 1.147582 1.000000
5239 1.966368 1.146673 1.000000
5240 1.200000 1.000000 1.000000
5241 1.400000 1.000000 1.000000
5242 1.600000 1.000000 1.000000
5243 1.800000 1.000000 1.000000
5244 2.000000 1.000000 1.000000
5245 2.200000 1.000000 1.000000
5246 2.400000 1.000000 1.000000
5247 2.600000 1.000000 1.000000
5248 2.800000 1.000000 1.000000
5249 3.000000 1.000000 1.000000
5250 3.200000 1.000000 1.000000
5251 3.400000 1.000000 1.000000
5252 3.600000 1.000000 1.000000
5253 3.800000 1.000000 1.000000
5254 4.000000 1.000000 1.000000
5255 4.200000 1.000000 1.000000
5256 4.400000 1.000000 1.000000
5257 4.600000 1.000000 1.000000
5258 4.800000 1.000000 1.000000
5259 5.000000 1.000000 1.000000
5260 5.200000 1.000000 1.000000
5261 5.400000 1.000000 1.000000
5262 5.600000 1.000000 1.000000
5263 5.800000 1.000000 1.000000
5264 6.000000 1.000000 1.000000
5265 6.200000 1.000000 1.000000
5266 6.400000 1.000000 1.000000
5267 6.600000 1.000000 1.000000
5268 6.800000 1.000000 1.000000
5269 7.000000 1.000000 1.000000
5270 7.200000 1.000000 1.000000
5271 7.400000 1.000000 1.000000
5272 7.600000 1.000000 1.000000
5273 7.800000 1.000000 1.000000
5274 8.000000 1.000000 1.000000
5275 8.200000 1.000000 1.000000
5276 8.400000 1.000000 1.000000
5277 8.600000 1.000000 1.000000
5278 8.800000 1.000000 1.000000
5279 9.000000 1.000000 1.000000
5280 9.200000 1.000000 1.000000
5281 9.400000 1.000000 1.000000
5282 9.600000 1.000000 1.000000
5283 9.800000 1.000000 1.000000
5284 10.000000 1.000000 1.000000
5285 10.200000 1.000000 1.000000
5286 10.400000 1.000000 1.000000
5287 10.600000 1.000000 1.000000
5288 10.800000 1.000000 1.000000
5289 11.000000 1.000000 1.000000
5290 1.136325 1.000000 6.093005
5291 1.144941 1.000000 5.737850
5292 1.148074 1.000000 1.153047
5293 1.148351 1.000000 6.939914
5294 1.149815 1.000000 3.680857
5295 1.153085 1.000000 6.715090
5296 1.153703 1.000000 9.946799
5297 1.153726 1.000000 3.307509
5298 1.154893 1.000000 6.320130
5299 1.156978 1.000000 1.515406
5300 1.157241 1.000000 10.838140
5301 1.157736 1.000000 3.886767
5302 1.158313 1.000000 1.895715
5303 1.158887 1.000000 2.897305
5304 1.159112 1.000000 10.180217
5305 1.159272 1.000000 4.473570
5306 1.159536 1.000000 2.096399
5307 1.160730 1.000000 10.407891
5308 1.162615 1.000000 8.094948
5309 1.166369 1.000000 6.505793
5310 1.166397 1.000000 10.631368
5311 1.166447 1.000000 5.059334
5312 1.168911 1.000000 4.866658
5313 1.170594 1.000000 2.304419
5314 1.171495 1.000000 1.706696
5315 1.173283 1.000000 7.506654
5316 1.173501 1.000000 5.244659
5317 1.174189 1.000000 4.671039
5318 1.175049 1.000000 8.695885
5319 1.175152 1.000000 4.272117
5320 1.175807 1.000000 2.691532
5321 1.176093 1.000000 1.335079
5322 1.176230 1.000000 9.720822
5323 1.178060 1.000000 9.523678
5324 1.178652 1.000000 9.302018
5325 1.181134 1.000000 7.898730
5326 1.181262 1.000000 8.478935
5327 1.181343 1.000000 2.498898
5328 1.183776 1.000000 8.904156
5329 1.184423 1.000000 7.701530
5330 1.184789 1.000000 7.302875
5331 1.185087 1.000000 4.090514
5332 1.186855 1.000000 5.910027
5333 1.187772 1.000000 3.118971
5334 1.191913 1.000000 8.280378
5335 1.192674 1.000000 9.104553
5336 1.193695 1.000000 7.124527
5337 1.200000 1.000000 11.000000
5338 1.201027 1.000000 3.502536
5339 1.239598 1.000000 5.412941
5340 1.279488 1.000000 6.194471
5341 1.298752 1.000000 6.843520
5342 1.321683 1.000000 3.722371
5343 1.325196 1.000000 10.059855
5344 1.327563 1.000000 6.607165
5345 1.332306 1.000000 10.787237
5346 1.332337 1.000000 2.984520
5347 1.333356 1.000000 1.165063
5348 1.333399 1.000000 1.533360
5349 1.336402 1.000000 1.944837
5350 1.336727 1.000000 9.844952
5351 1.337401 1.000000 2.165577
5352 1.338725 1.000000 3.324842
5353 1.338977 1.000000 10.530747
5354 1.340466 1.000000 3.939886
5355 1.340903 1.000000 5.985125
5356 1.345014 1.000000 10.296663
5357 1.349306 1.000000 9.424659
5358 1.349640 1.000000 8.071042
5359 1.351233 1.000000 4.355834
5360 1.358006 1.000000 4.544502
5361 1.359530 1.000000 1.749833
5362 1.360218 1.000000 4.981322
5363 1.360899 1.000000 8.579348
5364 1.360991 1.000000 2.774163
5365 1.363726 1.000000 4.771121
5366 1.364515 1.000000 5.182621
5367 1.365590 1.000000 7.408429
5368 1.368181 1.000000 6.392954
5369 1.378180 1.000000 7.024741
5370 1.380399 1.000000 2.375524
5371 1.380589 1.000000 7.831961
5372 1.381467 1.000000 8.799533
5373 1.382001 1.000000 5.574174
5374 1.382943 1.000000 1.352510
5375 1.388930 1.000000 7.609927
5376 1.388947 1.000000 8.331638
5377 1.391620 1.000000 2.570970
5378 1.400000 1.000000 11.000000
5379 1.404365 1.000000 9.641659
5380 1.405702 1.000000 4.160913
5381 1.405774 1.000000 9.007065
5382 1.406744 1.000000 5.368398
5383 1.408052 1.000000 9.215384
5384 1.428821 1.000000 7.214939
5385 1.431096 1.000000 3.531753
5386 1.439846 1.000000 3.157459
5387 1.448331 1.000000 6.147243
5388 1.474437 1.000000 6.768554
5389 1.511853 1.000000 10.835628
5390 1.512429 1.000000 10.122542
5391 1.517666 1.000000 5.745236
5392 1.519898 1.000000 1.158134
5393 1.520003 1.000000 10.635133
5394 1.524901 1.000000 1.586642
5395 1.527679 1.000000 3.747349
5396 1.527713 1.000000 2.027527
5397 1.536637 1.000000 8.152064
5398 1.536824 1.000000 4.625809
5399 1.537072 1.000000 6.296008
5400 1.538639 1.000000 3.973339
5401 1.539839 1.000000 9.884712
5402 1.541526 1.000000 6.542836
5403 1.544793 1.000000 2.922551
5404 1.549880 1.000000 10.392665
5405 1.554347 1.000000 8.508085
5406 1.562187 1.000000 2.238460
5407 1.562696 1.000000 9.434712
5408 1.563911 1.000000 4.352481
5409 1.566448 1.000000 4.891781
5410 1.568210 1.000000 5.554530
5411 1.573810 1.000000 1.817668
5412 1.574770 1.000000 5.122189
5413 1.577210 1.000000 7.918943
5414 1.579319 1.000000 6.969958
5415 1.579936 1.000000 3.362957
5416 1.580233 1.000000 1.340113
5417 1.590523 1.000000 5.341505
5418 1.592870 1.000000 8.742907
5419 1.594495 1.000000 7.418816
5420 1.596476 1.000000 2.691068
5421 1.600000 1.000000 11.000000
5422 1.601684 1.000000 7.669557
5423 1.628655 1.000000 2.461815
5424 1.641064 1.000000 8.976335
5425 1.649112 1.000000 9.201341
5426 1.653684 1.000000 9.661855
5427 1.656637 1.000000 5.899458
5428 1.671896 1.000000 6.421846
5429 1.672496 1.000000 7.172484
5430 1.676293 1.000000 3.115271
5431 1.676895 1.000000 8.326704
5432 1.677049 1.000000 6.727699
5433 1.680929 1.000000 4.133484
5434 1.701628 1.000000 10.818026
5435 1.703644 1.000000 3.590493
5436 1.705037 1.000000 10.166152
5437 1.707967 1.000000 1.503309
5438 1.715867 1.000000 1.161145
5439 1.722645 1.000000 10.619921
5440 1.724514 1.000000 5.711196
5441 1.727602 1.000000 4.495124
5442 1.741767 1.000000 4.751686
5443 1.753499 1.000000 3.863487
5444 1.761480 1.000000 2.024262
5445 1.776358 1.000000 1.730337
5446 1.777318 1.000000 5.492581
5447 1.777861 1.000000 9.917421
5448 1.785343 1.000000 10.410737
5449 1.785557 1.000000 6.576341
5450 1.785827 1.000000 6.043915
5451 1.785971 1.000000 2.858855
5452 1.787520 1.000000 6.912034
5453 1.788099 1.000000 8.079337
5454 1.799107 1.000000 2.263480
5455 1.800000 1.000000 11.000000
5456 1.802380 1.000000 5.261572
5457 1.805837 1.000000 5.019702
5458 1.806590 1.000000 8.583631
5459 1.811500 1.000000 9.414159
5460 1.817472 1.000000 3.326380
5461 1.817908 1.000000 1.319968
5462 1.819833 1.000000 7.814022
5463 1.835338 1.000000 7.537278
5464 1.851039 1.000000 2.589402
5465 1.856838 1.000000 4.279298
5466 1.862946 1.000000 7.316698
5467 1.864367 1.000000 8.835199
5468 1.877818 1.000000 5.848997
5469 1.893384 1.000000 10.825488
5470 1.901172 1.000000 7.072999
5471 1.902222 1.000000 6.198446
5472 1.907946 1.000000 6.736763
5473 1.913882 1.000000 9.128015
5474 1.915992 1.000000 9.677728
5475 1.923015 1.000000 1.529220
5476 1.929861 1.000000 1.154742
5477 1.931897 1.000000 8.340780
5478 1.937463 1.000000 10.629625
5479 1.942661 1.000000 3.076623
5480 1.946463 1.000000 10.169496
5481 1.948167 1.000000 5.628020
5482 1.955910 1.000000 4.551371
5483 1.960378 1.000000 1.868902
5484 1.968493 1.000000 4.039422
5485 1.968602 1.000000 3.526883
5486 1.971619 1.000000 3.757260
5487 1.973183 1.000000 4.828733
5488 1.993987 1.000000 2.378082
5489 2.000000 1.000000 11.000000
5490 2.003669 1.000000 6.000517
5491 2.012242 1.000000 10.406524
5492 2.020263 1.000000 5.391672
5493 2.020265 1.000000 6.366131
5494 2.025475 1.000000 6.896095
5495 2.037607 1.000000 1.340184
5496 2.046811 1.000000 8.071006
5497 2.047501 1.000000 5.150225
5498 2.048695 1.000000 2.801939
5499 2.049706 1.000000 7.608034
5500 2.061310 1.000000 7.198701
5501 2.062132 1.000000 7.849541
5502 2.064647 1.000000 2.095522
5503 2.065765 1.000000 9.949107
5504 2.072382 1.000000 9.403319
5505 2.076717 1.000000 1.665741
5506 2.094119 1.000000 8.582169
5507 2.097257 1.000000 10.792704
5508 2.107427 1.000000 6.173226
5509 2.107907 1.000000 7.398472
5510 2.110436 1.000000 5.776255
5511 2.117101 1.000000 3.292842
5512 2.123776 1.000000 4.323118
5513 2.124039 1.000000 8.894319
5514 2.136268 1.000000 1.167085
5515 2.160551 1.000000 7.038222
5516 2.160638 1.000000 10.554974
5517 2.163293 1.000000 6.532202
5518 2.181622 1.000000 2.568997
5519 2.187784 1.000000 1.483985
5520 2.198148 1.000000 4.954127
5521 2.198452 1.000000 10.246297
5522 2.199794 1.000000 4.631886
5523 2.200000 1.000000 11.000000
5524 2.201424 1.000000 9.678809
5525 2.201950 1.000000 5.538438
5526 2.212002 1.000000 8.258759
5527 2.216413 1.000000 6.353846
5528 2.230142 1.000000 3.833646
5529 2.230431 1.000000 5.965694
5530 2.235565 1.000000 9.167842
5531 2.239613 1.000000 1.835467
5532 2.242749 1.000000 3.013524
5533 2.263470 1.000000 7.733231
5534 2.264894 1.000000 4.098101
5535 2.267569 1.000000 3.560736
5536 2.275862 1.000000 7.223584
5537 2.278083 1.000000 10.847478
5538 2.285967 1.000000 2.281806
5539 2.287339 1.000000 1.324202
5540 2.299446 1.000000 7.515044
5541 2.303650 1.000000 5.274785
5542 2.307132 1.000000 6.646931
5543 2.315131 1.000000 7.974801
5544 2.328539 1.000000 10.674564
5545 2.331365 1.000000 6.171541
5546 2.341099 1.000000 9.965387
5547 2.347736 1.000000 1.154110
5548 2.358355 1.000000 1.596817
5549 2.365218 1.000000 5.745776
5550 2.371087 1.000000 10.450670
5551 2.372758 1.000000 8.703973
5552 2.374466 1.000000 8.425819
5553 2.386181 1.000000 6.423951
5554 2.388692 1.000000 2.022414
5555 2.388915 1.000000 6.821586
5556 2.399325 1.000000 2.764653
5557 2.400000 1.000000 11.000000
5558 2.405449 1.000000 9.446004
5559 2.410061 1.000000 7.355012
5560 2.419498 1.000000 4.420023
5561 2.421590 1.000000 3.258302
5562 2.437074 1.000000 10.192439
5563 2.450527 1.000000 4.754771
5564 2.458945 1.000000 7.726636
5565 2.466405 1.000000 8.958821
5566 2.467745 1.000000 5.500815
5567 2.469500 1.000000 5.050871
5568 2.471795 1.000000 8.158682
5569 2.477915 1.000000 1.376702
5570 2.478470 1.000000 5.982673
5571 2.490440 1.000000 10.829738
5572 2.516027 1.000000 6.540875
5573 2.519933 1.000000 2.472721
5574 2.520638 1.000000 1.775764
5575 2.524196 1.000000 7.015349
5576 2.526350 1.000000 9.743704
5577 2.532155 1.000000 7.522688
5578 2.537729 1.000000 6.245086
5579 2.538971 1.000000 1.187661
5580 2.541099 1.000000 6.712365
5581 2.542100 1.000000 3.824571
5582 2.551650 1.000000 10.631353
5583 2.551811 1.000000 4.118790
5584 2.562075 1.000000 7.913938
5585 2.583233 1.000000 3.518940
5586 2.593818 1.000000 10.354185
5587 2.598727 1.000000 9.219618
5588 2.600000 1.000000 11.000000
5589 2.602927 1.000000 8.537452
5590 2.603746 1.000000 1.551366
5591 2.610650 1.000000 2.999613
5592 2.614084 1.000000 2.181543
5593 2.628391 1.000000 5.789938
5594 2.653000 1.000000 8.315728
5595 2.655657 1.000000 10.046661
5596 2.658690 1.000000 5.278073
5597 2.659649 1.000000 6.383430
5598 2.667956 1.000000 7.686342
5599 2.672203 1.000000 7.148942
5600 2.687116 1.000000 8.753685
5601 2.689325 1.000000 6.072563
5602 2.693688 1.000000 10.828458
5603 2.699207 1.000000 1.916538
5604 2.713494 1.000000 6.575630
5605 2.714220 1.000000 4.687279
5606 2.714492 1.000000 8.076607
5607 2.715997 1.000000 5.575217
5608 2.720209 1.000000 10.513586
5609 2.722645 1.000000 1.363049
5610 2.729707 1.000000 1.163796
5611 2.749016 1.000000 4.381401
5612 2.749038 1.000000 6.962253
5613 2.766342 1.000000 2.696216
5614 2.769791 1.000000 9.491643
5615 2.773074 1.000000 8.983955
5616 2.775863 1.000000 4.993532
5617 2.784763 1.000000 7.846602
5618 2.797308 1.000000 1.636936
5619 2.797483 1.000000 7.334861
5620 2.800000 1.000000 11.000000
5621 2.801875 1.000000 9.823174
5622 2.803015 1.000000 3.270039
5623 2.809757 1.000000 6.234130
5624 2.814300 1.000000 10.694439
5625 2.815227 1.000000 10.245790
5626 2.833652 1.000000 5.908060
5627 2.853729 1.000000 8.517247
5628 2.854571 1.000000 2.380239
5629 2.864389 1.000000 6.431925
5630 2.866084 1.000000 7.163364
5631 2.869883 1.000000 8.256102
5632 2.883105 1.000000 3.680354
5633 2.886305 1.000000 4.036121
5634 2.889134 1.000000 6.813630
5635 2.903387 1.000000 5.412360
5636 2.915749 1.000000 8.002168
5637 2.917279 1.000000 9.225828
5638 2.918362 1.000000 1.209973
5639 2.920005 1.000000 5.707576
5640 2.924584 1.000000 2.103797
5641 2.930958 1.000000 1.441066
5642 2.933484 1.000000 10.485253
5643 2.937820 1.000000 10.845966
5644 2.944469 1.000000 1.820265
5645 2.951169 1.000000 7.486304
5646 2.956240 1.000000 8.742924
5647 2.957908 1.000000 6.086974
5648 2.966060 1.000000 7.008336
5649 2.981118 1.000000 5.155506
5650 2.994429 1.000000 4.751398
5651 2.998722 1.000000 10.022945
5652 3.000000 1.000000 11.000000
5653 3.004616 1.000000 2.948990
5654 3.015092 1.000000 7.305518
5655 3.016715 1.000000 6.295694
5656 3.035386 1.000000 8.967726
5657 3.039376 1.000000 8.413764
5658 3.040117 1.000000 4.438938
5659 3.041431 1.000000 8.151987
5660 3.048273 1.000000 9.684799
5661 3.054434 1.000000 10.674865
5662 3.061693 1.000000 10.278002
5663 3.065257 1.000000 6.669450
5664 3.075586 1.000000 7.668540
5665 3.081305 1.000000 6.848979
5666 3.082612 1.000000 5.911484
5667 3.091514 1.000000 1.633365
5668 3.103176 1.000000 1.164095
5669 3.104577 1.000000 5.632355
5670 3.109851 1.000000 2.575281
5671 3.118311 1.000000 3.383963
5672 3.126918 1.000000 9.394903
5673 3.134152 1.000000 1.361382
5674 3.134896 1.000000 8.616107
5675 3.136955 1.000000 7.125153
5676 3.142650 1.000000 5.400127
5677 3.154480 1.000000 6.149017
5678 3.159348 1.000000 4.951071
5679 3.166450 1.000000 7.524569
5680 3.166797 1.000000 1.944377
5681 3.176022 1.000000 10.842194
5682 3.176884 1.000000 8.286010
5683 3.181220 1.000000 10.475042
5684 3.186712 1.000000 2.266772
5685 3.199101 1.000000 4.134962
5686 3.200000 1.000000 11.000000
5687 3.215524 1.000000 7.361444
5688 3.219156 1.000000 7.814501
5689 3.225533 1.000000 9.127109
5690 3.233862 1.000000 6.550437
5691 3.241905 1.000000 6.946725
5692 3.242434 1.000000 3.794212
5693 3.243610 1.000000 8.840792
5694 3.254199 1.000000 5.819896
5695 3.259312 1.000000 9.877746
5696 3.275466 1.000000 10.184280
5697 3.281497 1.000000 5.171599
5698 3.281953 1.000000 6.728668
5699 3.284177 1.000000 8.448969
5700 3.290242 1.000000 1.507934
5701 3.294301 1.000000 10.665718
5702 3.296741 1.000000 6.034445
5703 3.302756 1.000000 4.679494
5704 3.303030 1.000000 1.195490
5705 3.328677 1.000000 7.656601
5706 3.329010 1.000000 5.626940
5707 3.332295 1.000000 3.042020
5708 3.337521 1.000000 7.992054
5709 3.338132 1.000000 1.762593
5710 3.360324 1.000000 4.407795
5711 3.361979 1.000000 7.217145
5712 3.368946 1.000000 2.714033
5713 3.369880 1.000000 5.397055
5714 3.373371 1.000000 9.568353
5715 3.374848 1.000000 6.429183
5716 3.377966 1.000000 8.624812
5717 3.395699 1.000000 10.422871
5718 3.400000 1.000000 11.000000
5719 3.415579 1.000000 2.069443
5720 3.416180 1.000000 10.839778
5721 3.435754 1.000000 7.464932
5722 3.436347 1.000000 5.889509
5723 3.438913 1.000000 7.009964
5724 3.440882 1.000000 1.361022
5725 3.446112 1.000000 4.925586
5726 3.452131 1.000000 9.296179
5727 3.453261 1.000000 7.852795
5728 3.473493 1.000000 3.469739
5729 3.477834 1.000000 9.034316
5730 3.477887 1.000000 6.799050
5731 3.480104 1.000000 2.405283
5732 3.482317 1.000000 6.590741
5733 3.485125 1.000000 8.810533
5734 3.486915 1.000000 10.002411
5735 3.508498 1.000000 8.443697
5736 3.512467 1.000000 8.093072
5737 3.513209 1.000000 10.640617
5738 3.515379 1.000000 6.305799
5739 3.518397 1.000000 1.175517
5740 3.518943 1.000000 5.653383
5741 3.526380 1.000000 4.076269
5742 3.530948 1.000000 1.587509
5743 3.534943 1.000000 5.166762
5744 3.545329 1.000000 5.451200
5745 3.566632 1.000000 10.226682
5746 3.572319 1.000000 7.667009
5747 3.596406 1.000000 7.254366
5748 3.597336 1.000000 9.738862
5749 3.597888 1.000000 5.811586
5750 3.599753 1.000000 1.842264
5751 3.600000 1.000000 11.000000
5752 3.602568 1.000000 3.772125
5753 3.602743 1.000000 4.671744
5754 3.612421 1.000000 8.273938
5755 3.620391 1.000000 4.386533
5756 3.628267 1.000000 6.454135
5757 3.634400 1.000000 8.643643
5758 3.639360 1.000000 10.830021
5759 3.646898 1.000000 10.446088
5760 3.652224 1.000000 3.143999
5761 3.658289 1.000000 6.193891
5762 3.670026 1.000000 7.895027
5763 3.673676 1.000000 1.383477
5764 3.674769 1.000000 6.987544
5765 3.687750 1.000000 2.132860
5766 3.688706 1.000000 2.758509
5767 3.698275 1.000000 5.300236
5768 3.700100 1.000000 6.732439
5769 3.701276 1.000000 4.931387
5770 3.709633 1.000000 9.429472
5771 3.710882 1.000000 7.459931
5772 3.717561 1.000000 1.187815
5773 3.723939 1.000000 8.898535
5774 3.738357 1.000000 5.512269
5775 3.746297 1.000000 5.677441
5776 3.748193 1.000000 10.648848
5777 3.748332 1.000000 9.158355
5778 3.757505 1.000000 8.473282
5779 3.759335 1.000000 8.089899
5780 3.771459 1.000000 9.965371
5781 3.774749 1.000000 1.608307
5782 3.800000 1.000000 11.000000
5783 3.807701 1.000000 6.550066
5784 3.808080 1.000000 6.080072
5785 3.811693 1.000000 2.430948
5786 3.813724 1.000000 6.317356
5787 3.815907 1.000000 5.119193
5788 3.823044 1.000000 10.208596
5789 3.829319 1.000000 7.677203
5790 3.829955 1.000000 4.163384
5791 3.858158 1.000000 3.478792
5792 3.859610 1.000000 7.190330
5793 3.863328 1.000000 10.831710
5794 3.863689 1.000000 8.286875
5795 3.863987 1.000000 1.861233
5796 3.865033 1.000000 4.480597
5797 3.871146 1.000000 3.860726
5798 3.880899 1.000000 10.431688
5799 3.883224 1.000000 4.735853
5800 3.886986 1.000000 8.720447
5801 3.905675 1.000000 1.179377
5802 3.906304 1.000000 5.335056
5803 3.913372 1.000000 1.383682
5804 3.915613 1.000000 9.645949
5805 3.919674 1.000000 6.902728
5806 3.928321 1.000000 5.529642
5807 3.934676 1.000000 7.884701
5808 3.934880 1.000000 5.954737
5809 3.973455 1.000000 10.640975
5810 3.974728 1.000000 3.074485
5811 3.975435 1.000000 2.129036
5812 3.981155 1.000000 4.952947
5813 3.987243 1.000000 7.426363
5814 3.996538 1.000000 8.994177
5815 3.997207 1.000000 6.672418
5816 4.000000 1.000000 11.000000
5817 4.003055 1.000000 6.192757
5818 4.017274 1.000000 8.520339
5819 4.019151 1.000000 1.610941
5820 4.030845 1.000000 6.421607
5821 4.031021 1.000000 8.088218
5822 4.033525 1.000000 9.919540
5823 4.034203 1.000000 9.308142
5824 4.044100 1.000000 2.715893
5825 4.051182 1.000000 5.168210
5826 4.068421 1.000000 10.176550
5827 4.080414 1.000000 10.829855
5828 4.082412 1.000000 5.852811
5829 4.091585 1.000000 4.289139
5830 4.096716 1.000000 5.378674
5831 4.097383 1.000000 1.191721
5832 4.102977 1.000000 10.415754
5833 4.114660 1.000000 4.559372
5834 4.118654 1.000000 7.663105
5835 4.118898 1.000000 8.312948
5836 4.126749 1.000000 4.013854
5837 4.133555 1.000000 7.119810
5838 4.135748 1.000000 1.851931
5839 4.136489 1.000000 3.680605
5840 4.142928 1.000000 6.051730
5841 4.148304 1.000000 2.397760
5842 4.155480 1.000000 4.791654
5843 4.157443 1.000000 1.394910
5844 4.172471 1.000000 8.750618
5845 4.174542 1.000000 5.713665
5846 4.192733 1.000000 10.639944
5847 4.197074 1.000000 3.347625
5848 4.200000 1.000000 11.000000
5849 4.215150 1.000000 6.848139
5850 4.217447 1.000000 5.017617
5851 4.223890 1.000000 9.619840
5852 4.236652 1.000000 7.902520
5853 4.250815 1.000000 6.307925
5854 4.252583 1.000000 6.576618
5855 4.253913 1.000000 5.231579
5856 4.268303 1.000000 2.102351
5857 4.276073 1.000000 1.612316
5858 4.285855 1.000000 9.047699
5859 4.287114 1.000000 7.391546
5860 4.294605 1.000000 10.835309
5861 4.300575 1.000000 9.915420
5862 4.303863 1.000000 1.192868
5863 4.312344 1.000000 10.186630
5864 4.318074 1.000000 5.866813
5865 4.322527 1.000000 10.431488
5866 4.325157 1.000000 8.166450
5867 4.325226 1.000000 8.487332
5868 4.325747 1.000000 5.628813
5869 4.327048 1.000000 3.010178
5870 4.334879 1.000000 4.373900
5871 4.343017 1.000000 6.090158
5872 4.354387 1.000000 4.625852
5873 4.372331 1.000000 9.326219
5874 4.376597 1.000000 4.123116
5875 4.384076 1.000000 4.865777
5876 4.388784 1.000000 3.846176
5877 4.400000 1.000000 11.000000
5878 4.400267 1.000000 2.657934
5879 4.401182 1.000000 1.400347
5880 4.412923 1.000000 10.663374
5881 4.420709 1.000000 5.087475
5882 4.421297 1.000000 1.838193
5883 4.433713 1.000000 7.658650
5884 4.448919 1.000000 3.537213
5885 4.449984 1.000000 7.092070
5886 4.463773 1.000000 5.506096
5887 4.467708 1.000000 8.793010
5888 4.479691 1.000000 2.348967
5889 4.491736 1.000000 6.499708
5890 4.500109 1.000000 6.802929
5891 4.508696 1.000000 5.736006
5892 4.516356 1.000000 1.188145
5893 4.519012 1.000000 10.833480
5894 4.526151 1.000000 6.240403
5895 4.535729 1.000000 10.480553
5896 4.542535 1.000000 1.626365
5897 4.544788 1.000000 5.970797
5898 4.547131 1.000000 7.942994
5899 4.551433 1.000000 10.247696
5900 4.551445 1.000000 9.677951
5901 4.556508 1.000000 4.462751
5902 4.559645 1.000000 4.716926
5903 4.560594 1.000000 2.065529
5904 4.562061 1.000000 9.983412
5905 4.567176 1.000000 3.259847
5906 4.589447 1.000000 8.255101
5907 4.589776 1.000000 4.938134
5908 4.596958 1.000000 4.219771
5909 4.600000 1.000000 11.000000
5910 4.610672 1.000000 5.380201
5911 4.613303 1.000000 8.541321
5912 4.631244 1.000000 1.386448
5913 4.632080 1.000000 7.389771
5914 4.652854 1.000000 3.971471
5915 4.652994 1.000000 9.051325
5916 4.658477 1.000000 10.652990
5917 4.660136 1.000000 3.713758
5918 4.670318 1.000000 2.926073
5919 4.678722 1.000000 5.587141
5920 4.683249 1.000000 9.387441
5921 4.735064 1.000000 10.823761
5922 4.735974 1.000000 4.571887
5923 4.736444 1.000000 5.829364
5924 4.737143 1.000000 1.175752
5925 4.737271 1.000000 1.874717
5926 4.750353 1.000000 2.552792
5927 4.753369 1.000000 6.700118
5928 4.757990 1.000000 10.414484
5929 4.759140 1.000000 5.254289
5930 4.759295 1.000000 4.792791
5931 4.760928 1.000000 6.390616
5932 4.766432 1.000000 6.100708
5933 4.771313 1.000000 1.599956
5934 4.778164 1.000000 7.707558
5935 4.788486 1.000000 4.317167
5936 4.790632 1.000000 7.066332
5937 4.797094 1.000000 2.223551
5938 4.799617 1.000000 10.151506
5939 4.800000 1.000000 11.000000
5940 4.805739 1.000000 3.483259
5941 4.830098 1.000000 9.864526
5942 4.844329 1.000000 8.759163
5943 4.851147 1.000000 5.430928
5944 4.858110 1.000000 1.352582
5945 4.863052 1.000000 4.077345
5946 4.866136 1.000000 8.059166
5947 4.879697 1.000000 10.602942
5948 4.890789 1.000000 5.123183
5949 4.890974 1.000000 3.189468
5950 4.909078 1.000000 3.779603
5951 4.910486 1.000000 5.665731
5952 4.913382 1.000000 8.396688
5953 4.922428 1.000000 9.585734
5954 4.926371 1.000000 4.457366
5955 4.927236 1.000000 10.829505
5956 4.932473 1.000000 4.657897
5957 4.977427 1.000000 1.166796
5958 4.977638 1.000000 2.830166
5959 4.981247 1.000000 5.923793
5960 4.982459 1.000000 10.347299
5961 4.982695 1.000000 1.779071
5962 4.997405 1.000000 1.532399
5963 4.998534 1.000000 7.422769
5964 5.000000 1.000000 11.000000
5965 5.000237 1.000000 9.223171
5966 5.012576 1.000000 2.063290
5967 5.018254 1.000000 6.220184
5968 5.022850 1.000000 5.265289
5969 5.032587 1.000000 6.520675
5970 5.038093 1.000000 4.256067
5971 5.039576 1.000000 6.852669
5972 5.046624 1.000000 5.014398
5973 5.057918 1.000000 10.074891
5974 5.066568 1.000000 10.679270
5975 5.067418 1.000000 2.426898
5976 5.077454 1.000000 3.992579
5977 5.083797 1.000000 3.467439
5978 5.087043 1.000000 5.499837
5979 5.104745 1.000000 4.495393
5980 5.107193 1.000000 1.340713
5981 5.124702 1.000000 7.822746
5982 5.136467 1.000000 8.901599
5983 5.142205 1.000000 10.494992
5984 5.145491 1.000000 3.749837
5985 5.153815 1.000000 9.804342
5986 5.154436 1.000000 10.844911
5987 5.157032 1.000000 3.119160
5988 5.174389 1.000000 5.729966
5989 5.200000 1.000000 11.000000
5990 5.201097 1.000000 4.893374
5991 5.213674 1.000000 7.129127
5992 5.215622 1.000000 1.593979
5993 5.225729 1.000000 8.556419
5994 5.226862 1.000000 5.131111
5995 5.230220 1.000000 1.852277
5996 5.230283 1.000000 1.171322
5997 5.238500 1.000000 8.186561
5998 5.238568 1.000000 4.139311
5999 5.240100 1.000000 6.029703
6000 5.244111 1.000000 10.268450
6001 5.246898 1.000000 4.355982
6002 5.251204 1.000000 2.755936
6003 5.254735 1.000000 9.490547
6004 5.256886 1.000000 5.356022
6005 5.290251 1.000000 2.165844
6006 5.299057 1.000000 10.666647
6007 5.317783 1.000000 6.339016
6008 5.328753 1.000000 1.390122
6009 5.329741 1.000000 6.675199
6010 5.331235 1.000000 3.351205
6011 5.331774 1.000000 3.936206
6012 5.333349 1.000000 3.642458
6013 5.340474 1.000000 4.760676
6014 5.355671 1.000000 10.025726
6015 5.372071 1.000000 10.839742
6016 5.375758 1.000000 7.580091
6017 5.391052 1.000000 5.547046
6018 5.397888 1.000000 10.467544
6019 5.400000 1.000000 11.000000
6020 5.402915 1.000000 9.170856
6021 5.409357 1.000000 2.441802
6022 5.414115 1.000000 5.001087
6023 5.415760 1.000000 4.220067
6024 5.418940 1.000000 3.036933
6025 5.435557 1.000000 5.815422
6026 5.452555 1.000000 1.185156
6027 5.455132 1.000000 1.647916
6028 5.465581 1.000000 1.936462
6029 5.471507 1.000000 5.243816
6030 5.471596 1.000000 9.749261
6031 5.498436 1.000000 4.617960
6032 5.510914 1.000000 3.820178
6033 5.519736 1.000000 10.254403
6034 5.533747 1.000000 4.071299
6035 5.534116 1.000000 3.538911
6036 5.535632 1.000000 10.657267
6037 5.538242 1.000000 1.396187
6038 5.543107 1.000000 6.894602
6039 5.548624 1.000000 2.753493
6040 5.549188 1.000000 6.102888
6041 5.549562 1.000000 8.798672
6042 5.551227 1.000000 4.818416
6043 5.554638 1.000000 7.955774
6044 5.570320 1.000000 7.284808
6045 5.578826 1.000000 10.833516
6046 5.586175 1.000000 3.266668
6047 5.600000 1.000000 11.000000
6048 5.618481 1.000000 9.452682
6049 5.629028 1.000000 8.394261
6050 5.633288 1.000000 5.497227
6051 5.638353 1.000000 2.172085
6052 5.642235 1.000000 6.453336
6053 5.647269 1.000000 10.011737
6054 5.654914 1.000000 4.506225
6055 5.656976 1.000000 10.472485
6056 5.665633 1.000000 1.172392
6057 5.668472 1.000000 5.009676
6058 5.686576 1.000000 1.841271
6059 5.694532 1.000000 3.709429
6060 5.694765 1.000000 3.959481
6061 5.699206 1.000000 1.583426
6062 5.702962 1.000000 5.779511
6063 5.706372 1.000000 3.023143
6064 5.716675 1.000000 5.247305
6065 5.728713 1.000000 2.486932
6066 5.742853 1.000000 4.717378
6067 5.748753 1.000000 1.350392
6068 5.754240 1.000000 3.453860
6069 5.770624 1.000000 10.845937
6070 5.781029 1.000000 4.351712
6071 5.785819 1.000000 10.668660
6072 5.789134 1.000000 10.260384
6073 5.791115 1.000000 9.118605
6074 5.792537 1.000000 9.744559
6075 5.800000 1.000000 11.000000
6076 5.832345 1.000000 2.775869
6077 5.850788 1.000000 6.126702
6078 5.853457 1.000000 3.839969
6079 5.853592 1.000000 6.730160
6080 5.860646 1.000000 7.636597
6081 5.867403 1.000000 3.251975
6082 5.893195 1.000000 4.925361
6083 5.895320 1.000000 4.516740
6084 5.895559 1.000000 3.600219
6085 5.896124 1.000000 1.195933
6086 5.904201 1.000000 1.998559
6087 5.911453 1.000000 10.486177
6088 5.912881 1.000000 7.138285
6089 5.919885 1.000000 5.495920
6090 5.921982 1.000000 1.707669
6091 5.928361 1.000000 1.452009
6092 5.936511 1.000000 10.017925
6093 5.946832 1.000000 5.175373
6094 5.952704 1.000000 4.266168
6095 5.966609 1.000000 9.459313
6096 5.967114 1.000000 2.284749
6097 5.969878 1.000000 10.832518
6098 5.971363 1.000000 8.746514
6099 5.975182 1.000000 8.138572
6100 5.976002 1.000000 3.049264
6101 5.985326 1.000000 5.831409
6102 6.000000 1.000000 11.000000
6103 6.000314 1.000000 4.725305
6104 6.020668 1.000000 3.723564
6105 6.025215 1.000000 3.422302
6106 6.039457 1.000000 2.552626
6107 6.050702 1.000000 10.669816
6108 6.053051 1.000000 10.263885
6109 6.054329 1.000000 6.409176
6110 6.080972 1.000000 2.824327
6111 6.090905 1.000000 4.091103
6112 6.093685 1.000000 1.156685
6113 6.108931 1.000000 1.337715
6114 6.112430 1.000000 9.769272
6115 6.124206 1.000000 4.480835
6116 6.142157 1.000000 1.577337
6117 6.148522 1.000000 3.240368
6118 6.150363 1.000000 1.841462
6119 6.154837 1.000000 3.578856
6120 6.160338 1.000000 9.161556
6121 6.161951 1.000000 10.479369
6122 6.163171 1.000000 4.271373
6123 6.172450 1.000000 4.993598
6124 6.185533 1.000000 5.321325
6125 6.197518 1.000000 2.123215
6126 6.197612 1.000000 10.848495
6127 6.200000 1.000000 11.000000
6128 6.216819 1.000000 5.659166
6129 6.222404 1.000000 4.714291
6130 6.223828 1.000000 6.797996
6131 6.232886 1.000000 10.039640
6132 6.233278 1.000000 3.005684
6133 6.240999 1.000000 6.082805
6134 6.253220 1.000000 3.964867
6135 6.264264 1.000000 7.277093
6136 6.281318 1.000000 3.427989
6137 6.287511 1.000000 2.707845
6138 6.292692 1.000000 10.683521
6139 6.294738 1.000000 8.539046
6140 6.296784 1.000000 1.180176
6141 6.297500 1.000000 2.436769
6142 6.308650 1.000000 7.749589
6143 6.311775 1.000000 9.527774
6144 6.320608 1.000000 1.407600
6145 6.327001 1.000000 10.273515
6146 6.342739 1.000000 4.138995
6147 6.367723 1.000000 4.371671
6148 6.372299 1.000000 1.659616
6149 6.375167 1.000000 3.172588
6150 6.392852 1.000000 3.815780
6151 6.398940 1.000000 10.493147
6152 6.400000 1.000000 11.000000
6153 6.415005 1.000000 1.916424
6154 6.418522 1.000000 8.929617
6155 6.421733 1.000000 4.592572
6156 6.434422 1.000000 2.909439
6157 6.438882 1.000000 10.837687
6158 6.440072 1.000000 9.845036
6159 6.444615 1.000000 4.883906
6160 6.448610 1.000000 3.345061
6161 6.451216 1.000000 5.174977
6162 6.462124 1.000000 6.431608
6163 6.464001 1.000000 2.222542
6164 6.469441 1.000000 8.192191
6165 6.478302 1.000000 1.234759
6166 6.486015 1.000000 5.489044
6167 6.491790 1.000000 5.870847
6168 6.501059 1.000000 3.969518
6169 6.516430 1.000000 2.677460
6170 6.537724 1.000000 1.476192
6171 6.538744 1.000000 10.651877
6172 6.541035 1.000000 10.127725
6173 6.541955 1.000000 9.308721
6174 6.572990 1.000000 4.188878
6175 6.574227 1.000000 3.044495
6176 6.576177 1.000000 3.740166
6177 6.596363 1.000000 10.381109
6178 6.596946 1.000000 6.904951
6179 6.597830 1.000000 2.479047
6180 6.600000 1.000000 11.000000
6181 6.612102 1.000000 3.215928
6182 6.628537 1.000000 1.727622
6183 6.629978 1.000000 4.419219
6184 6.639544 1.000000 1.147008
6185 6.660178 1.000000 9.649313
6186 6.662625 1.000000 10.820233
6187 6.670647 1.000000 2.009203
6188 6.674054 1.000000 4.702547
6189 6.688483 1.000000 2.852394
6190 6.702006 1.000000 3.585147
6191 6.703782 1.000000 7.396107
6192 6.704257 1.000000 1.329336
6193 6.716977 1.000000 3.971498
6194 6.722558 1.000000 2.282896
6195 6.727865 1.000000 5.023585
6196 6.732727 1.000000 10.572659
6197 6.743266 1.000000 8.686076
6198 6.746935 1.000000 6.133161
6199 6.749930 1.000000 9.973193
6200 6.776473 1.000000 1.542592
6201 6.782005 1.000000 2.657607
6202 6.783309 1.000000 3.056782
6203 6.788482 1.000000 5.680358
6204 6.794381 1.000000 5.333831
6205 6.800000 1.000000 11.000000
6206 6.812543 1.000000 3.782457
6207 6.813034 1.000000 10.281676
6208 6.816628 1.000000 9.096843
6209 6.829794 1.000000 4.213673
6210 6.835746 1.000000 7.855525
6211 6.845938 1.000000 3.432477
6212 6.848610 1.000000 10.790836
6213 6.855575 1.000000 1.163824
6214 6.874703 1.000000 1.847219
6215 6.883253 1.000000 6.562970
6216 6.885183 1.000000 4.483531
6217 6.899731 1.000000 8.314369
6218 6.899893 1.000000 2.435919
6219 6.911840 1.000000 2.892333
6220 6.914683 1.000000 9.441061
6221 6.922841 1.000000 2.153616
6222 6.922994 1.000000 10.547838
6223 6.932344 1.000000 1.351723
6224 6.938799 1.000000 4.807696
6225 6.940785 1.000000 3.594291
6226 6.958740 1.000000 1.633624
6227 6.975306 1.000000 9.774333
6228 6.977531 1.000000 4.012367
6229 6.988977 1.000000 2.663509
6230 7.000000 1.000000 11.000000
6231 7.022246 1.000000 3.343574
6232 7.022515 1.000000 10.082128
6233 7.024345 1.000000 10.791243
6234 7.042819 1.000000 7.037849
6235 7.056238 1.000000 3.805746
6236 7.067767 1.000000 10.346878
6237 7.068141 1.000000 5.860480
6238 7.068892 1.000000 1.170140
6239 7.076418 1.000000 5.132875
6240 7.092991 1.000000 1.481160
6241 7.098346 1.000000 2.800985
6242 7.112210 1.000000 4.268364
6243 7.117546 1.000000 2.009659
6244 7.124292 1.000000 8.905717
6245 7.126754 1.000000 2.507012
6246 7.129452 1.000000 10.595993
6247 7.133632 1.000000 2.286766
6248 7.145701 1.000000 3.553442
6249 7.149295 1.000000 4.568540
6250 7.160172 1.000000 1.765313
6251 7.160700 1.000000 3.187849
6252 7.164039 1.000000 5.477386
6253 7.187103 1.000000 6.240533
6254 7.191043 1.000000 7.539050
6255 7.193902 1.000000 1.322006
6256 7.200000 1.000000 11.000000
6257 7.203048 1.000000 10.837180
6258 7.223196 1.000000 9.249398
6259 7.235272 1.000000 8.565049
6260 7.244123 1.000000 9.583947
6261 7.250161 1.000000 4.851250
6262 7.253919 1.000000 2.657897
6263 7.263425 1.000000 4.056712
6264 7.265384 1.000000 3.379590
6265 7.265577 1.000000 9.902334
6266 7.269378 1.000000 3.784307
6267 7.289580 1.000000 1.578659
6268 7.296143 1.000000 10.190043
6269 7.298155 1.000000 1.158759
6270 7.310220 1.000000 3.034395
6271 7.314002 1.000000 10.426598
6272 7.321743 1.000000 10.668332
6273 7.329951 1.000000 8.074271
6274 7.341099 1.000000 2.129386
6275 7.343457 1.000000 2.419788
6276 7.365967 1.000000 6.650387
6277 7.385049 1.000000 4.423291
6278 7.394912 1.000000 1.866475
6279 7.399066 1.000000 1.367504
6280 7.400000 1.000000 11.000000
6281 7.402553 1.000000 3.212103
6282 7.405895 1.000000 3.600397
6283 7.412157 1.000000 10.842960
6284 7.416439 1.000000 2.820106
6285 7.455477 1.000000 5.855581
6286 7.459214 1.000000 2.616213
6287 7.459760 1.000000 5.141811
6288 7.497834 1.000000 1.598770
6289 7.500627 1.000000 10.578008
6290 7.501331 1.000000 3.894155
6291 7.503882 1.000000 1.177359
6292 7.508493 1.000000 7.121456
6293 7.517713 1.000000 2.257143
6294 7.518038 1.000000 3.014168
6295 7.519761 1.000000 4.748820
6296 7.520213 1.000000 8.971954
6297 7.522821 1.000000 10.051854
6298 7.524250 1.000000 3.412458
6299 7.532613 1.000000 9.717883
6300 7.546916 1.000000 5.496809
6301 7.550714 1.000000 4.188401
6302 7.561800 1.000000 10.337567
6303 7.562248 1.000000 9.385970
6304 7.570782 1.000000 10.789416
6305 7.600000 1.000000 11.000000
6306 7.613323 1.000000 1.381713
6307 7.614911 1.000000 2.817306
6308 7.615369 1.000000 2.437541
6309 7.621119 1.000000 8.512472
6310 7.631605 1.000000 1.808998
6311 7.632031 1.000000 7.640903
6312 7.646111 1.000000 3.208053
6313 7.651861 1.000000 2.064321
6314 7.657886 1.000000 6.226941
6315 7.662213 1.000000 3.678775
6316 7.694163 1.000000 2.624896
6317 7.700037 1.000000 10.586679
6318 7.705042 1.000000 1.183515
6319 7.711659 1.000000 4.503691
6320 7.738882 1.000000 1.590622
6321 7.744464 1.000000 10.816954
6322 7.758052 1.000000 2.997938
6323 7.758527 1.000000 9.891303
6324 7.771083 1.000000 3.450004
6325 7.776529 1.000000 10.178629
6326 7.783312 1.000000 3.967256
6327 7.800000 1.000000 11.000000
6328 7.807686 1.000000 4.920568
6329 7.814565 1.000000 2.278764
6330 7.830737 1.000000 10.417674
6331 7.834757 1.000000 1.380315
6332 7.837166 1.000000 8.072402
6333 7.850581 1.000000 6.681928
6334 7.862505 1.000000 9.254666
6335 7.864082 1.000000 2.770427
6336 7.868784 1.000000 5.300589
6337 7.873786 1.000000 9.623222
6338 7.875255 1.000000 1.853069
6339 7.882855 1.000000 8.867558
6340 7.895250 1.000000 3.212965
6341 7.901096 1.000000 2.499569
6342 7.901347 1.000000 4.253483
6343 7.902646 1.000000 1.166177
6344 7.910266 1.000000 5.769815
6345 7.912541 1.000000 10.654893
6346 7.931828 1.000000 7.223953
6347 7.937982 1.000000 10.845066
6348 7.953953 1.000000 3.720738
6349 7.956133 1.000000 1.609780
6350 7.980636 1.000000 2.090007
6351 7.997143 1.000000 9.987970
6352 8.000000 1.000000 11.000000
6353 8.008751 1.000000 2.952297
6354 8.029757 1.000000 3.464843
6355 8.030097 1.000000 4.623942
6356 8.030803 1.000000 1.337512
6357 8.036250 1.000000 10.275409
6358 8.058523 1.000000 8.440561
6359 8.068317 1.000000 10.532359
6360 8.096520 1.000000 2.665051
6361 8.117757 1.000000 10.794156
6362 8.119617 1.000000 1.165783
6363 8.122223 1.000000 3.993167
6364 8.122881 1.000000 6.206923
6365 8.126637 1.000000 1.514958
6366 8.129972 1.000000 2.358094
6367 8.133492 1.000000 7.644755
6368 8.136345 1.000000 1.809720
6369 8.147600 1.000000 3.167883
6370 8.166363 1.000000 9.514750
6371 8.191459 1.000000 9.822171
6372 8.200000 1.000000 11.000000
6373 8.201000 1.000000 5.014535
6374 8.206432 1.000000 9.171270
6375 8.239094 1.000000 6.884785
6376 8.249275 1.000000 4.326153
6377 8.250927 1.000000 10.129490
6378 8.256775 1.000000 8.805583
6379 8.259668 1.000000 5.430177
6380 8.262024 1.000000 2.069082
6381 8.262739 1.000000 10.632797
6382 8.267223 1.000000 2.886784
6383 8.271162 1.000000 1.345193
6384 8.271309 1.000000 10.397130
6385 8.277034 1.000000 3.413267
6386 8.286590 1.000000 3.714763
6387 8.309057 1.000000 1.601297
6388 8.325138 1.000000 10.822459
6389 8.325866 1.000000 1.166758
6390 8.351226 1.000000 2.587454
6391 8.367053 1.000000 7.999491
6392 8.396551 1.000000 6.516468
6393 8.400000 1.000000 11.000000
6394 8.406072 1.000000 4.692051
6395 8.409365 1.000000 5.832165
6396 8.409531 1.000000 1.833207
6397 8.432691 1.000000 7.245505
6398 8.433772 1.000000 3.138869
6399 8.444818 1.000000 2.308296
6400 8.464009 1.000000 10.586481
6401 8.464799 1.000000 9.756158
6402 8.469931 1.000000 1.391724
6403 8.474969 1.000000 10.042019
6404 8.476203 1.000000 4.040970
6405 8.481053 1.000000 8.387672
6406 8.483551 1.000000 10.322625
6407 8.486067 1.000000 9.442824
6408 8.512557 1.000000 1.190044
6409 8.514098 1.000000 10.816389
6410 8.541444 1.000000 1.601149
6411 8.550910 1.000000 3.454824
6412 8.553024 1.000000 2.838584
6413 8.573865 1.000000 9.102267
6414 8.578333 1.000000 2.048610
6415 8.600000 1.000000 11.000000
6416 8.602241 1.000000 7.570062
6417 8.624781 1.000000 8.752257
6418 8.635052 1.000000 5.111092
6419 8.636237 1.000000 6.162628
6420 8.636515 1.000000 3.772713
6421 8.641898 1.000000 4.371642
6422 8.669523 1.000000 10.667513
6423 8.670797 1.000000 2.545542
6424 8.688058 1.000000 10.458354
6425 8.688519 1.000000 6.863025
6426 8.691247 1.000000 1.362216
6427 8.692893 1.000000 1.815244
6428 8.704802 1.000000 1.164188
6429 8.705269 1.000000 5.477420
6430 8.718051 1.000000 10.212904
6431 8.729211 1.000000 3.132223
6432 8.731147 1.000000 10.836129
6433 8.737669 1.000000 9.944391
6434 8.760591 1.000000 1.572226
6435 8.762721 1.000000 9.647424
6436 8.783405 1.000000 2.238963
6437 8.800000 1.000000 11.000000
6438 8.803226 1.000000 4.754073
6439 8.815343 1.000000 7.832643
6440 8.823397 1.000000 8.157014
6441 8.828789 1.000000 9.311186
6442 8.854823 1.000000 6.504045
6443 8.868168 1.000000 3.437395
6444 8.874833 1.000000 5.805173
6445 8.880398 1.000000 10.615957
6446 8.881420 1.000000 2.830250
6447 8.882882 1.000000 7.192252
6448 8.891388 1.000000 1.206918
6449 8.902047 1.000000 1.969148
6450 8.902288 1.000000 4.117863
6451 8.921405 1.000000 10.826637
6452 8.925285 1.000000 8.508107
6453 8.925976 1.000000 1.428200
6454 8.926962 1.000000 10.386467
6455 8.954375 1.000000 1.704204
6456 8.962473 1.000000 8.909968
6457 8.971613 1.000000 3.753550
6458 8.974288 1.000000 10.133634
6459 8.993674 1.000000 2.479710
6460 9.000000 1.000000 11.000000
6461 9.017923 1.000000 9.856668
6462 9.044678 1.000000 7.495738
6463 9.053133 1.000000 5.032976
6464 9.056701 1.000000 6.141318
6465 9.064331 1.000000 4.528698
6466 9.073165 1.000000 9.553886
6467 9.075591 1.000000 10.667846
6468 9.077775 1.000000 1.159230
6469 9.085320 1.000000 3.145471
6470 9.093517 1.000000 5.419049
6471 9.098982 1.000000 2.167404
6472 9.105143 1.000000 6.831855
6473 9.109984 1.000000 1.346278
6474 9.131946 1.000000 10.476628
6475 9.132203 1.000000 10.841568
6476 9.144227 1.000000 1.578296
6477 9.150100 1.000000 9.208924
6478 9.174062 1.000000 1.860556
6479 9.182819 1.000000 7.861014
6480 9.194788 1.000000 10.266232
6481 9.200000 1.000000 11.000000
6482 9.203079 1.000000 8.212547
6483 9.221072 1.000000 2.765656
6484 9.233344 1.000000 6.468778
6485 9.249761 1.000000 5.781941
6486 9.253826 1.000000 10.021669
6487 9.254704 1.000000 8.579511
6488 9.260255 1.000000 3.475622
6489 9.276074 1.000000 3.875204
6490 9.278207 1.000000 4.210817
6491 9.279895 1.000000 1.181303
6492 9.290421 1.000000 10.646004
6493 9.290713 1.000000 7.134211
6494 9.304365 1.000000 2.438421
6495 9.320459 1.000000 9.740503
6496 9.320518 1.000000 1.390001
6497 9.322564 1.000000 8.878125
6498 9.328267 1.000000 10.829280
6499 9.350938 1.000000 4.835534
6500 9.369443 1.000000 1.622071
6501 9.371115 1.000000 2.121472
6502 9.374991 1.000000 7.489788
6503 9.389792 1.000000 10.434471
6504 9.398092 1.000000 9.425510
6505 9.400000 1.000000 11.000000
6506 9.400495 1.000000 5.192830
6507 9.403664 1.000000 3.065951
6508 9.414838 1.000000 6.107545
6509 9.415709 1.000000 4.519958
6510 9.426197 1.000000 1.868029
6511 9.463365 1.000000 10.211005
6512 9.469933 1.000000 1.173086
6513 9.472420 1.000000 6.745925
6514 9.477573 1.000000 5.529171
6515 9.495909 1.000000 10.635121
6516 9.501017 1.000000 7.797947
6517 9.509400 1.000000 9.113752
6518 9.517443 1.000000 1.365543
6519 9.519553 1.000000 10.831043
6520 9.519911 1.000000 8.099848
6521 9.528720 1.000000 8.419397
6522 9.532767 1.000000 9.942201
6523 9.550566 1.000000 3.684165
6524 9.555384 1.000000 6.398261
6525 9.555765 1.000000 2.730195
6526 9.558208 1.000000 3.334181
6527 9.585335 1.000000 2.370652
6528 9.593224 1.000000 1.553121
6529 9.596057 1.000000 4.025728
6530 9.600000 1.000000 11.000000
6531 9.614803 1.000000 8.737948
6532 9.621165 1.000000 5.849852
6533 9.623237 1.000000 7.006812
6534 9.627405 1.000000 9.635470
6535 9.628143 1.000000 1.775176
6536 9.634862 1.000000 7.290435
6537 9.640057 1.000000 10.428417
6538 9.653397 1.000000 4.318554
6539 9.663986 1.000000 2.077409
6540 9.668643 1.000000 1.185303
6541 9.681069 1.000000 4.988761
6542 9.689511 1.000000 10.653394
6543 9.693285 1.000000 4.678706
6544 9.708829 1.000000 10.178754
6545 9.717500 1.000000 7.603800
6546 9.718627 1.000000 10.832528
6547 9.719459 1.000000 3.012594
6548 9.731504 1.000000 5.311639
6549 9.732099 1.000000 9.324850
6550 9.754758 1.000000 1.381425
6551 9.766162 1.000000 8.974972
6552 9.775428 1.000000 6.155115
6553 9.794235 1.000000 6.532842
6554 9.797712 1.000000 9.901624
6555 9.800000 1.000000 11.000000
6556 9.806710 1.000000 7.940010
6557 9.808449 1.000000 8.267632
6558 9.809729 1.000000 2.582908
6559 9.817630 1.000000 3.527694
6560 9.824206 1.000000 5.606023
6561 9.835484 1.000000 8.555660
6562 9.836806 1.000000 1.615605
6563 9.837579 1.000000 6.791548
6564 9.842536 1.000000 1.878296
6565 9.844607 1.000000 3.847471
6566 9.856238 1.000000 10.602476
6567 9.859560 1.000000 1.156944
6568 9.872475 1.000000 3.252495
6569 9.878182 1.000000 10.367998
6570 9.891540 1.000000 2.305825
6571 9.906938 1.000000 10.830561
6572 9.910384 1.000000 4.471413
6573 9.911255 1.000000 9.618786
6574 9.919377 1.000000 2.825273
6575 9.922131 1.000000 7.377157
6576 9.927265 1.000000 4.144579
6577 9.936950 1.000000 7.096217
6578 9.948130 1.000000 5.888706
6579 9.956386 1.000000 1.313177
6580 9.964955 1.000000 10.108355
6581 9.967783 1.000000 4.814261
6582 9.969728 1.000000 5.123461
6583 9.981816 1.000000 9.109723
6584 9.984013 1.000000 7.684177
6585 9.989762 1.000000 8.784608
6586 9.996323 1.000000 1.502137
6587 9.998247 1.000000 6.357500
6588 10.000000 1.000000 11.000000
6589 10.000126 1.000000 2.076117
6590 10.003328 1.000000 9.384160
6591 10.034189 1.000000 8.163458
6592 10.046623 1.000000 10.709017
6593 10.049138 1.000000 5.398519
6594 10.060998 1.000000 3.620627
6595 10.063024 1.000000 1.781960
6596 10.067075 1.000000 10.507172
6597 10.070511 1.000000 3.061590
6598 10.076981 1.000000 9.824640
6599 10.082760 1.000000 1.163897
6600 10.087315 1.000000 8.477535
6601 10.088473 1.000000 2.540798
6602 10.105041 1.000000 6.879685
6603 10.105545 1.000000 7.897339
6604 10.108173 1.000000 6.117442
6605 10.122151 1.000000 6.612667
6606 10.129357 1.000000 3.875282
6607 10.129892 1.000000 3.365840
6608 10.134140 1.000000 5.662670
6609 10.137307 1.000000 10.282540
6610 10.144109 1.000000 10.854425
6611 10.150318 1.000000 4.608522
6612 10.167217 1.000000 4.349051
6613 10.169213 1.000000 7.512101
6614 10.183826 1.000000 7.253541
6615 10.184324 1.000000 2.763494
6616 10.184741 1.000000 2.310674
6617 10.190540 1.000000 1.356989
6618 10.194809 1.000000 1.578262
6619 10.200000 1.000000 11.000000
6620 10.200184 1.000000 5.003543
6621 10.202146 1.000000 8.973880
6622 10.209746 1.000000 9.555203
6623 10.210220 1.000000 4.097842
6624 10.222089 1.000000 9.258860
6625 10.233539 1.000000 10.043174
6626 10.238616 1.000000 2.051026
6627 10.250921 1.000000 8.280285
6628 10.258749 1.000000 10.662709
6629 10.259178 1.000000 8.706852
6630 10.263741 1.000000 5.899194
6631 10.274723 1.000000 5.235289
6632 10.275038 1.000000 6.360277
6633 10.282331 1.000000 1.168718
6634 10.289718 1.000000 4.805200
6635 10.291464 1.000000 10.457663
6636 10.296406 1.000000 8.028988
6637 10.301060 1.000000 7.036425
6638 10.303925 1.000000 1.822177
6639 10.306933 1.000000 7.720071
6640 10.309871 1.000000 3.621457
6641 10.316120 1.000000 9.793953
6642 10.316878 1.000000 2.964220
6643 10.331849 1.000000 3.190236
6644 10.340103 1.000000 5.470309
6645 10.355036 1.000000 10.847374
6646 10.362435 1.000000 6.796363
6647 10.366677 1.000000 2.529174
6648 10.374558 1.000000 8.512733
6649 10.388012 1.000000 6.130506
6650 10.394539 1.000000 3.841753
6651 10.398422 1.000000 1.365728
6652 10.400000 1.000000 11.000000
6653 10.401729 1.000000 7.466434
6654 10.402855 1.000000 1.567755
6655 10.405208 1.000000 4.551922
6656 10.405603 1.000000 3.408337
6657 10.406197 1.000000 6.567288
6658 10.411220 1.000000 10.239431
6659 10.411524 1.000000 4.309304
6660 10.416486 1.000000 2.274758
6661 10.417961 1.000000 5.694953
6662 10.421261 1.000000 9.118570
6663 10.421327 1.000000 9.378731
6664 10.436423 1.000000 8.872401
6665 10.437927 1.000000 4.067704
6666 10.443080 1.000000 7.230516
6667 10.444603 1.000000 2.760822
6668 10.463345 1.000000 10.681371
6669 10.464362 1.000000 9.599418
6670 10.466319 1.000000 10.014739
6671 10.467456 1.000000 8.285690
6672 10.468414 1.000000 2.037989
6673 10.469019 1.000000 5.047523
6674 10.473561 1.000000 7.846125
6675 10.474995 1.000000 1.171426
6676 10.487619 1.000000 10.490106
6677 10.500494 1.000000 4.798757
6678 10.503832 1.000000 8.076428
6679 10.509790 1.000000 1.792818
6680 10.536661 1.000000 5.921373
6681 10.537744 1.000000 5.286282
6682 10.540936 1.000000 6.337499
6683 10.545735 1.000000 9.817872
6684 10.549189 1.000000 3.012971
6685 10.561630 1.000000 6.982336
6686 10.561712 1.000000 8.660319
6687 10.569731 1.000000 3.606781
6688 10.576137 1.000000 10.863823
6689 10.581787 1.000000 7.619905
6690 10.588262 1.000000 3.212975
6691 10.600000 1.000000 11.000000
6692 10.600438 1.000000 6.756489
6693 10.601219 1.000000 5.494636
6694 10.602802 1.000000 2.417776
6695 10.608140 1.000000 1.365081
6696 10.615536 1.000000 1.564126
6697 10.617566 1.000000 2.622453
6698 10.619428 1.000000 3.796116
6699 10.623058 1.000000 8.461631
6700 10.624423 1.000000 4.439310
6701 10.624818 1.000000 9.255195
6702 10.629998 1.000000 7.399722
6703 10.630692 1.000000 10.315310
6704 10.633301 1.000000 9.040749
6705 10.634285 1.000000 4.218109
6706 10.635198 1.000000 6.125419
6707 10.638739 1.000000 3.993927
6708 10.640841 1.000000 2.200613
6709 10.641907 1.000000 3.408839
6710 10.642404 1.000000 6.533288
6711 10.647007 1.000000 10.117730
6712 10.648168 1.000000 5.717916
6713 10.649399 1.000000 4.656615
6714 10.651444 1.000000 9.465590
6715 10.651933 1.000000 7.177318
6716 10.660237 1.000000 8.838974
6717 10.661274 1.000000 1.170112
6718 10.661778 1.000000 2.851644
6719 10.663526 1.000000 10.708000
6720 10.667254 1.000000 1.974768
6721 10.671844 1.000000 7.817121
6722 10.676703 1.000000 4.915957
6723 10.680652 1.000000 8.250301
6724 10.685329 1.000000 8.023321
6725 10.688679 1.000000 10.518128
6726 10.695990 1.000000 9.676808
6727 10.700200 1.000000 1.750735
6728 10.709238 1.000000 5.143867
6729 10.714978 1.000000 9.919162
6730 10.785441 1.000000 5.922150
6731 10.785507 1.000000 6.313871
6732 10.787627 1.000000 3.088696
6733 10.793559 1.000000 6.898256
6734 10.800000 1.000000 11.000000
6735 10.800248 1.000000 5.319808
6736 10.806290 1.000000 8.540829
6737 10.809137 1.000000 3.690857
6738 10.810323 1.000000 7.504787
6739 10.810422 1.000000 1.510028
6740 10.810658 1.000000 10.855664
6741 10.813325 1.000000 5.523530
6742 10.816308 1.000000 2.505180
6743 10.816625 1.000000 3.502505
6744 10.816659 1.000000 6.701753
6745 10.816739 1.000000 8.717441
6746 10.820254 1.000000 2.314680
6747 10.820292 1.000000 7.081953
6748 10.821366 1.000000 7.689672
6749 10.822907 1.000000 1.335201
6750 10.823394 1.000000 3.285088
6751 10.824102 1.000000 2.701341
6752 10.824131 1.000000 4.325167
6753 10.824273 1.000000 9.136600
6754 10.827099 1.000000 4.110006
6755 10.828984 1.000000 10.247830
6756 10.829157 1.000000 4.538810
6757 10.829429 1.000000 9.339930
6758 10.830277 1.000000 3.895844
6759 10.831892 1.000000 7.298469
6760 10.832303 1.000000 4.767937
6761 10.834035 1.000000 2.111338
6762 10.835888 1.000000 6.499512
6763 10.837559 1.000000 6.116371
6764 10.839573 1.000000 8.932546
6765 10.840149 1.000000 5.727252
6766 10.840775 1.000000 2.909952
6767 10.841095 1.000000 8.348885
6768 10.845687 1.000000 10.440881
6769 10.847329 1.000000 1.902500
6770 10.847515 1.000000 9.554955
6771 10.847587 1.000000 1.152279
6772 10.848688 1.000000 8.128838
6773 10.852064 1.000000 1.684816
6774 10.852319 1.000000 10.041400
6775 10.853193 1.000000 7.906002
6776 10.855554 1.000000 10.658206
6777 10.855560 1.000000 5.009236
6778 10.858322 1.000000 9.793742
6779 11.000000 1.000000 11.000000
6780 11.000000 1.000000 10.800000
6781 11.000000 1.000000 10.600000
6782 11.000000 1.000000 10.400000
6783 11.000000 1.000000 10.200000
6784 11.000000 1.000000 10.000000
6785 11.000000 1.000000 9.800000
6786 11.000000 1.000000 9.600000
6787 11.000000 1.000000 9.400000
6788 11.000000 1.000000 9.200000
6789 11.000000 1.000000 9.000000
6790 11.000000 1.000000 8.800000
6791 11.000000 1.000000 8.600000
6792 11.000000 1.000000 8.400000
6793 11.000000 1.000000 8.200000
6794 11.000000 1.000000 8.000000
6795 11.000000 1.000000 7.800000
6796 11.000000 1.000000 7.600000
6797 11.000000 1.000000 7.400000
6798 11.000000 1.000000 7.200000
6799 11.000000 1.000000 7.000000
6800 11.000000 1.000000 6.800000
6801 11.000000 1.000000 6.600000
6802 11.000000 1.000000 6.400000
6803 11.000000 1.000000 6.200000
6804 11.000000 1.000000 6.000000
6805 11.000000 1.000000 5.800000
6806 11.000000 1.000000 5.600000
6807 11.000000 1.000000 5.400000
6808 11.000000 1.000000 5.200000
6809 11.000000 1.000000 5.000000
6810 11.000000 1.000000 4.800000
6811 11.000000 1.000000 4.600000
6812 11.000000 1.000000 4.400000
6813 11.000000 1.000000 4.200000
6814 11.000000 1.000000 4.000000
6815 11.000000 1.000000 3.800000
6816 11.000000 1.000000 3.600000
6817 11.000000 1.000000 3.400000
6818 11.000000 1.000000 3.200000
6819 11.000000 1.000000 3.000000
6820 11.000000 1.000000 2.800000
6821 11.000000 1.000000 2.600000
6822 11.000000 1.000000 2.400000
6823 11.000000 1.000000 2.200000
6824 11.000000 1.000000 2.000000
6825 11.000000 1.000000 1.800000
6826 11.000000 1.000000 1.600000
6827 11.000000 1.000000 1.400000
6828 11.000000 1.000000 1.200000
6829 11.000000 11.000000 11.000000
6830 11.000000 11.000000 10.800000
6831 11.000000 11.000000 10.600000
6832 11.000000 11.000000 10.400000
6833 11.000000 11.000000 10.200000
6834 11.000000 11.000000 10.000000
6835 11.000000 11.000000 9.800000
6836 11.000000 11.000000 9.600000
6837 11.000000 11.000000 9.400000
6838 11.000000 11.000000 9.200000
6839 11.000000 11.000000 9.000000
6840 11.000000 11.000000 8.800000
6841 11.000000 11.000000 8.600000
6842 11.000000 11.000000 8.400000
6843 11.000000 11.000000 8.200000
6844 11.000000 11.000000 8.000000
6845 11.000000 11.000000 7.800000
6846 11.000000 11.000000 7.600000
6847 11.000000 11.000000 7.400000
6848 11.000000 11.000000 7.200000
6849 11.000000 11.000000 7.000000
6850 11.000000 11.000000 6.800000
6851 11.000000 11.000000 6.600000
6852 11.000000 11.000000 6.400000
6853 11.000000 11.000000 6.200000
6854 11.000000 11.000000 6.000000
6855 11.000000 11.000000 5.800000
6856 11.000000 11.000000 5.600000
6857 11.000000 11.000000 5.400000
6858 11.000000 11.000000 5.200000
6859 11.000000 11.000000 5.000000
6860 11.000000 11.000000 4.800000
6861 11.000000 11.000000 4.600000
6862 11.000000 11.000000 4.400000
6863 11.000000 11.000000 4.200000
6864 11.000000 11.000000 4.000000
6865 11.000000 11.000000 3.800000
6866 11.000000 11.000000 3.600000
6867 11.000000 11.000000 3.400000
6868 11.000000 11.000000 3.200000
6869 11.000000 11.000000 3.000000
6870 11.000000 11.000000 2.800000
6871 11.000000 11.000000 2.600000
6872 11.000000 11.000000 2.400000
6873 11.000000 11.000000 2.200000
6874 11.000000 11.000000 2.000000
6875 11.000000 11.000000 1.800000
6876 11.000000 11.000000 1.600000
6877 11.000000 11.000000 1.400000
6878 11.000000 11.000000 1.200000
6879 11.000000 10.866602 10.329266
6880 11.000000 10.855961 8.173387
6881 11.000000 10.853963 6.062877
6882 11.000000 10.853287 9.500704
6883 11.000000 10.850490 10.859201
6884 11.000000 10.849858 4.365994
6885 11.000000 10.849398 8.517861
6886 11.000000 10.849002 6.674429
6887 11.000000 10.847316 4.034682
6888 11.000000 10.845427 7.071972
6889 11.000000 10.845414 10.105444
6890 11.000000 10.844590 1.149867
6891 11.000000 10.844207 9.893642
6892 11.000000 10.842180 1.730983
6893 11.000000 10.840815 2.064361
6894 11.000000 10.838986 2.679915
6895 11.000000 10.836574 7.477033
6896 11.000000 10.836274 9.280147
6897 11.000000 10.834701 3.274257
6898 11.000000 10.834369 2.884073
6899 11.000000 10.834136 10.514846
6900 11.000000 10.833531 2.269457
6901 11.000000 10.833009 5.304606
6902 11.000000 10.832781 5.097367
6903 11.000000 10.832177 1.334953
6904 11.000000 10.832161 3.481240
6905 11.000000 10.831662 5.693645
6906 11.000000 10.831060 7.857261
6907 11.000000 10.830759 9.694402
6908 11.000000 10.829102 4.719709
6909 11.000000 10.827658 1.528916
6910 11.000000 10.821472 3.844501
6911 11.000000 10.820985 8.709506
6912 11.000000 10.820739 2.483216
6913 11.000000 10.820294 5.501211
6914 11.000000 10.818905 4.199223
6915 11.000000 10.818275 6.269129
6916 11.000000 10.818113 7.673102
6917 11.000000 10.818061 10.684928
6918 11.000000 10.817939 8.901786
6919 11.000000 10.817754 6.471809
6920 11.000000 10.817098 3.083168
6921 11.000000 10.809749 4.921866
6922 11.000000 10.808960 3.673572
6923 11.000000 10.808660 4.543386
6924 11.000000 10.806878 7.259423
6925 11.000000 10.801999 6.872686
6926 11.000000 10.800000 11.000000
6927 11.000000 10.789824 9.098131
6928 11.000000 10.783702 5.864837
6929 11.000000 10.777475 8.348188
6930 11.000000 10.774419 8.011423
6931 11.000000 10.764076 1.888263
6932 11.000000 10.728485 10.263506
6933 11.000000 10.694497 9.426119
6934 11.000000 10.680422 10.010577
6935 11.000000 10.676993 6.061224
6936 11.000000 10.669704 6.674627
6937 11.000000 10.665785 3.968480
6938 11.000000 10.664133 5.179460
6939 11.000000 10.661222 10.463437
6940 11.000000 10.661005 2.714550
6941 11.000000 10.659974 1.178105
6942 11.000000 10.659126 3.343605
6943 11.000000 10.658805 7.049280
6944 11.000000 10.658475 10.840955
6945 11.000000 10.658334 7.393702
6946 11.000000 10.655174 4.381384
6947 11.000000 10.654401 1.645939
6948 11.000000 10.653383 8.532976
6949 11.000000 10.650609 2.322575
6950 11.000000 10.650383 9.805115
6951 11.000000 10.646301 2.104666
6952 11.000000 10.645891 4.798885
6953 11.000000 10.645211 1.402650
6954 11.000000 10.642161 2.923309
6955 11.000000 10.640151 8.196225
6956 11.000000 10.637899 9.604750
6957 11.000000 10.636133 4.173292
6958 11.000000 10.633335 5.401428
6959 11.000000 10.631919 5.636376
6960 11.000000 10.625833 3.555321
6961 11.000000 10.622357 7.594700
6962 11.000000 10.618343 8.738413
6963 11.000000 10.615148 7.802774
6964 11.000000 10.614801 3.146560
6965 11.000000 10.614545 10.646895
6966 11.000000 10.613998 6.470921
6967 11.000000 10.612895 6.273541
6968 11.000000 10.612473 2.522219
6969 11.000000 10.606542 8.941831
6970 11.000000 10.603013 9.270899
6971 11.000000 10.600000 11.000000
6972 11.000000 10.594137 4.606753
6973 11.000000 10.582908 3.766147
6974 11.000000 10.581858 10.171826
6975 11.000000 10.573149 4.995620
6976 11.000000 10.561889 7.997286
6977 11.000000 10.557042 1.871799
6978 11.000000 10.556269 6.849562
6979 11.000000 10.550009 5.865169
6980 11.000000 10.549840 7.221643
6981 11.000000 10.536587 9.121684
6982 11.000000 10.509630 8.361851
6983 11.000000 10.498823 10.372034
6984 11.000000 10.483587 1.211049
6985 11.000000 10.472338 10.821439
6986 11.000000 10.471129 9.933861
6987 11.000000 10.467703 6.098824
6988 11.000000 10.465926 3.982287
6989 11.000000 10.457496 4.428198
6990 11.000000 10.457490 1.451573
6991 11.000000 10.455365 9.458976
6992 11.000000 10.453050 3.376705
6993 11.000000 10.451626 5.214891
6994 11.000000 10.449175 1.678971
6995 11.000000 10.443900 2.276131
6996 11.000000 10.442487 2.740844
6997 11.000000 10.438489 6.625031
6998 11.000000 10.437675 4.214047
6999 11.000000 10.435946 9.700936
7000 11.000000 10.432450 2.966830
7001 11.000000 10.430710 7.436399
7002 11.000000 10.429593 2.042380
7003 11.000000 10.425047 5.447656
7004 11.000000 10.423397 8.564256
7005 11.000000 10.421674 4.795042
7006 11.000000 10.419146 10.608098
7007 11.000000 10.410734 5.676449
7008 11.000000 10.407445 2.507962
7009 11.000000 10.407231 7.033319
7010 11.000000 10.400000 11.000000
7011 11.000000 10.395681 3.604670
7012 11.000000 10.394855 8.158574
7013 11.000000 10.393169 7.665848
7014 11.000000 10.393115 8.805596
7015 11.000000 10.385374 10.129381
7016 11.000000 10.383847 6.377140
7017 11.000000 10.383113 3.176622
7018 11.000000 10.359947 7.890060
7019 11.000000 10.344568 9.040583
7020 11.000000 10.319000 9.293426
7021 11.000000 10.314896 4.598806
7022 11.000000 10.313836 3.839107
7023 11.000000 10.312806 5.001466
7024 11.000000 10.302790 1.156012
7025 11.000000 10.299305 10.397482
7026 11.000000 10.292862 10.824698
7027 11.000000 10.290762 6.819746
7028 11.000000 10.282995 7.248002
7029 11.000000 10.281662 5.916585
7030 11.000000 10.278666 1.346478
7031 11.000000 10.274763 1.834929
7032 11.000000 10.263756 6.172168
7033 11.000000 10.250924 9.864934
7034 11.000000 10.234934 9.583972
7035 11.000000 10.234035 4.095913
7036 11.000000 10.230325 8.348224
7037 11.000000 10.228907 1.576480
7038 11.000000 10.217417 10.640318
7039 11.000000 10.217272 2.111406
7040 11.000000 10.216354 4.357153
7041 11.000000 10.209969 5.229719
7042 11.000000 10.205447 2.897578
7043 11.000000 10.203307 3.409598
7044 11.000000 10.201586 2.369338
7045 11.000000 10.200000 11.000000
7046 11.000000 10.198450 8.612109
7047 11.000000 10.197206 2.642335
7048 11.000000 10.192990 10.165002
7049 11.000000 10.189378 6.575696
7050 11.000000 10.188895 5.466915
7051 11.000000 10.176560 8.057867
7052 11.000000 10.176005 5.700452
7053 11.000000 10.175870 7.494830
7054 11.000000 10.163665 3.149342
7055 11.000000 10.146019 3.679703
7056 11.000000 10.143128 4.791859
7057 11.000000 10.142436 8.887997
7058 11.000000 10.133101 7.749278
7059 11.000000 10.131588 7.035389
7060 11.000000 10.107194 1.178651
7061 11.000000 10.101749 10.444224
7062 11.000000 10.097217 10.835675
7063 11.000000 10.094623 9.141893
7064 11.000000 10.087837 6.347926
7065 11.000000 10.065543 1.381312
7066 11.000000 10.064565 9.412015
7067 11.000000 10.045612 9.956464
7068 11.000000 10.041074 1.896297
7069 11.000000 10.039059 3.958445
7070 11.000000 10.034354 4.548082
7071 11.000000 10.029209 6.068446
7072 11.000000 10.023144 5.018069
7073 11.000000 10.009756 1.609821
7074 11.000000 10.006355 6.789039
7075 11.000000 10.002915 10.658210
7076 11.000000 10.000000 11.000000
7077 11.000000 9.997543 7.284053
7078 11.000000 9.989480 9.700849
7079 11.000000 9.984731 4.241084
7080 11.000000 9.977133 10.240737
7081 11.000000 9.975218 2.191957
7082 11.000000 9.964585 5.826673
7083 11.000000 9.956855 8.209939
7084 11.000000 9.956257 8.460713
7085 11.000000 9.955676 2.472748
7086 11.000000 9.951406 8.726475
7087 11.000000 9.949004 2.747608
7088 11.000000 9.947288 7.911290
7089 11.000000 9.938649 3.524669
7090 11.000000 9.937715 5.301854
7091 11.000000 9.927896 3.007267
7092 11.000000 9.922641 3.281118
7093 11.000000 9.914565 1.180621
7094 11.000000 9.913283 5.555054
7095 11.000000 9.891709 10.839882
7096 11.000000 9.889360 7.564272
7097 11.000000 9.881964 6.538396
7098 11.000000 9.877933 10.470517
7099 11.000000 9.868501 3.782280
7100 11.000000 9.857272 1.381768
7101 11.000000 9.838627 4.770915
7102 11.000000 9.835780 1.760941
7103 11.000000 9.834388 8.973421
7104 11.000000 9.834141 7.027851
7105 11.000000 9.827046 9.235566
7106 11.000000 9.815809 10.001851
7107 11.000000 9.800000 11.000000
7108 11.000000 9.799512 6.256240
7109 11.000000 9.781035 10.669473
7110 11.000000 9.777183 4.436966
7111 11.000000 9.772888 9.491822
7112 11.000000 9.766486 2.009805
7113 11.000000 9.747516 5.107768
7114 11.000000 9.744117 10.251858
7115 11.000000 9.740302 4.096636
7116 11.000000 9.737404 1.559225
7117 11.000000 9.718554 5.975769
7118 11.000000 9.717262 1.180173
7119 11.000000 9.707400 7.788596
7120 11.000000 9.695681 2.299837
7121 11.000000 9.692547 7.298013
7122 11.000000 9.688157 9.763994
7123 11.000000 9.687105 8.663823
7124 11.000000 9.682068 8.087419
7125 11.000000 9.680969 6.756491
7126 11.000000 9.680412 10.845643
7127 11.000000 9.678419 2.595004
7128 11.000000 9.656376 8.382607
7129 11.000000 9.655608 2.885554
7130 11.000000 9.655013 5.686079
7131 11.000000 9.654065 10.476604
7132 11.000000 9.651196 3.495323
7133 11.000000 9.647075 3.186043
7134 11.000000 9.620610 1.366403
7135 11.000000 9.616923 3.806761
7136 11.000000 9.611654 5.411003
7137 11.000000 9.600000 11.000000
7138 11.000000 9.589523 1.794550
7139 11.000000 9.561899 10.678050
7140 11.000000 9.558536 6.456128
7141 11.000000 9.557231 4.913318
7142 11.000000 9.552704 10.030850
7143 11.000000 9.538612 9.201620
7144 11.000000 9.535885 4.615030
7145 11.000000 9.533680 8.907814
7146 11.000000 9.531587 7.560123
7147 11.000000 9.508881 1.179678
7148 11.000000 9.507579 10.266184
7149 11.000000 9.500483 7.010976
7150 11.000000 9.496997 2.068321
7151 11.000000 9.489742 1.582395
7152 11.000000 9.482380 4.295269
7153 11.000000 9.466452 6.147191
7154 11.000000 9.464260 10.844823
7155 11.000000 9.462344 9.508320
7156 11.000000 9.430963 10.495134
7157 11.000000 9.403609 5.206595
7158 11.000000 9.401577 2.371343
7159 11.000000 9.400000 11.000000
7160 11.000000 9.397003 1.385346
7161 11.000000 9.395777 5.812200
7162 11.000000 9.388179 7.892002
7163 11.000000 9.387157 3.995364
7164 11.000000 9.384930 9.798596
7165 11.000000 9.370981 8.216175
7166 11.000000 9.364968 2.682653
7167 11.000000 9.360362 8.590983
7168 11.000000 9.346408 2.998520
7169 11.000000 9.346281 1.838587
7170 11.000000 9.345145 3.322358
7171 11.000000 9.339054 3.643518
7172 11.000000 9.334075 10.676152
7173 11.000000 9.332986 7.290044
7174 11.000000 9.331336 6.688492
7175 11.000000 9.311267 1.172016
7176 11.000000 9.285780 10.287831
7177 11.000000 9.284032 10.047155
7178 11.000000 9.250572 1.621529
7179 11.000000 9.249127 10.849333
7180 11.000000 9.247828 4.849108
7181 11.000000 9.243044 5.537832
7182 11.000000 9.228887 2.132973
7183 11.000000 9.225425 8.945385
7184 11.000000 9.204970 9.277405
7185 11.000000 9.200000 11.000000
7186 11.000000 9.199787 1.356192
7187 11.000000 9.198442 4.514746
7188 11.000000 9.197509 6.349287
7189 11.000000 9.195910 10.476835
7190 11.000000 9.177810 7.622166
7191 11.000000 9.148192 9.628921
7192 11.000000 9.134509 6.960783
7193 11.000000 9.129476 5.985332
7194 11.000000 9.119493 10.680406
7195 11.000000 9.111567 4.184733
7196 11.000000 9.106847 1.899030
7197 11.000000 9.103779 1.170727
7198 11.000000 9.093523 2.445301
7199 11.000000 9.090218 5.149285
7200 11.000000 9.083681 8.349486
7201 11.000000 9.071380 1.513551
7202 11.000000 9.063363 10.208286
7203 11.000000 9.060949 9.901579
7204 11.000000 9.045040 3.822717
7205 11.000000 9.029884 10.850195
7206 11.000000 9.024865 2.755394
7207 11.000000 9.017836 7.990453
7208 11.000000 9.015199 3.108870
7209 11.000000 9.005288 3.460161
7210 11.000000 9.000000 11.000000
7211 11.000000 8.994785 10.473085
7212 11.000000 8.987600 8.688611
7213 11.000000 8.970750 1.714263
7214 11.000000 8.966284 7.282134
7215 11.000000 8.956779 2.193691
7216 11.000000 8.955402 1.335268
7217 11.000000 8.943258 6.599108
7218 11.000000 8.920911 9.428634
7219 11.000000 8.904083 10.675261
7220 11.000000 8.895153 1.162610
7221 11.000000 8.889616 4.770433
7222 11.000000 8.885103 5.432332
7223 11.000000 8.867946 5.770402
7224 11.000000 8.858460 9.082551
7225 11.000000 8.850015 10.298887
7226 11.000000 8.838127 10.037653
7227 11.000000 8.832323 1.528027
7228 11.000000 8.831910 1.941369
7229 11.000000 8.816553 6.211860
7230 11.000000 8.810107 10.852459
7231 11.000000 8.809956 4.416329
7232 11.000000 8.809174 9.711675
7233 11.000000 8.806448 7.642912
7234 11.000000 8.800000 11.000000
7235 11.000000 8.761785 2.502950
7236 11.000000 8.752271 10.500335
7237 11.000000 8.741674 6.907182
7238 11.000000 8.737374 4.030528
7239 11.000000 8.724994 8.336580
7240 11.000000 8.719603 1.325549
7241 11.000000 8.711804 5.081827
7242 11.000000 8.697660 1.148897
7243 11.000000 8.695159 2.861572
7244 11.000000 8.686393 1.740009
7245 11.000000 8.685442 2.192190
7246 11.000000 8.681252 10.690174
7247 11.000000 8.662491 3.633944
7248 11.000000 8.642162 3.239093
7249 11.000000 8.635252 10.240815
7250 11.000000 8.630946 8.766062
7251 11.000000 8.624441 9.378291
7252 11.000000 8.613034 1.510650
7253 11.000000 8.611651 9.920854
7254 11.000000 8.600000 11.000000
7255 11.000000 8.587490 7.975498
7256 11.000000 8.580017 10.853432
7257 11.000000 8.569133 7.283840
7258 11.000000 8.541918 10.467859
7259 11.000000 8.536697 1.964002
7260 11.000000 8.521203 6.491972
7261 11.000000 8.515829 1.196580
7262 11.000000 8.513626 5.955839
7263 11.000000 8.489262 5.489949
7264 11.000000 8.483113 9.643256
7265 11.000000 8.473029 10.669982
7266 11.000000 8.465060 1.389217
7267 11.000000 8.462645 2.326378
7268 11.000000 8.459416 4.675919
7269 11.000000 8.454987 9.063302
7270 11.000000 8.446649 10.113907
7271 11.000000 8.439931 1.662908
7272 11.000000 8.430212 2.644907
7273 11.000000 8.418839 8.532602
7274 11.000000 8.404565 4.290475
7275 11.000000 8.400000 11.000000
7276 11.000000 8.367143 10.856764
7277 11.000000 8.365427 7.630590
7278 11.000000 8.358786 10.333469
7279 11.000000 8.350982 5.068460
7280 11.000000 8.337362 1.146703
7281 11.000000 8.336492 3.009403
7282 11.000000 8.329484 3.874283
7283 11.000000 8.325491 6.911564
7284 11.000000 8.309416 8.229172
7285 11.000000 8.309018 1.849925
7286 11.000000 8.308964 9.881389
7287 11.000000 8.292101 10.537057
7288 11.000000 8.283299 2.114149
7289 11.000000 8.281185 1.307120
7290 11.000000 8.277748 9.347587
7291 11.000000 8.259885 3.413157
7292 11.000000 8.254793 1.512105
7293 11.000000 8.254576 10.727353
7294 11.000000 8.223070 8.815418
7295 11.000000 8.200000 11.000000
7296 11.000000 8.185441 10.138250
7297 11.000000 8.169290 6.194132
7298 11.000000 8.163078 7.924255
7299 11.000000 8.162731 2.419364
7300 11.000000 8.146685 9.629440
7301 11.000000 8.139749 1.689539
7302 11.000000 8.139734 7.296363
7303 11.000000 8.129802 5.698460
7304 11.000000 8.125183 1.155485
7305 11.000000 8.124471 10.843440
7306 11.000000 8.108466 10.386661
7307 11.000000 8.083051 2.731014
7308 11.000000 8.081084 8.528040
7309 11.000000 8.076762 9.075864
7310 11.000000 8.073361 1.343308
7311 11.000000 8.067376 10.620451
7312 11.000000 8.052905 6.606557
7313 11.000000 8.042871 1.931936
7314 11.000000 8.019971 9.898752
7315 11.000000 8.011637 5.239867
7316 11.000000 8.000000 11.000000
7317 11.000000 7.996102 4.283068
7318 11.000000 7.995504 4.746202
7319 11.000000 7.993028 2.188888
7320 11.000000 7.983377 1.520862
7321 11.000000 7.965067 3.044989
7322 11.000000 7.950806 7.626073
7323 11.000000 7.946018 10.166494
7324 11.000000 7.945781 9.361773
7325 11.000000 7.945710 8.216942
7326 11.000000 7.937189 3.787066
7327 11.000000 7.936361 10.825800
7328 11.000000 7.926211 1.163789
7329 11.000000 7.905310 6.990862
7330 11.000000 7.889344 10.425290
7331 11.000000 7.878268 1.730804
7332 11.000000 7.871805 3.377356
7333 11.000000 7.870095 8.805184
7334 11.000000 7.868452 10.642313
7335 11.000000 7.847106 1.336371
7336 11.000000 7.835354 2.518206
7337 11.000000 7.821363 9.647647
7338 11.000000 7.800000 11.000000
7339 11.000000 7.798100 7.940703
7340 11.000000 7.794775 8.495702
7341 11.000000 7.786132 5.926572
7342 11.000000 7.773684 9.107705
7343 11.000000 7.759804 1.965281
7344 11.000000 7.748570 9.935213
7345 11.000000 7.741735 6.335437
7346 11.000000 7.741415 10.845230
7347 11.000000 7.738544 2.261163
7348 11.000000 7.737097 1.524199
7349 11.000000 7.734541 7.341427
7350 11.000000 7.726663 10.221247
7351 11.000000 7.719393 1.156147
7352 11.000000 7.682071 5.470015
7353 11.000000 7.679980 2.793055
7354 11.000000 7.669820 10.481442
7355 11.000000 7.669059 10.676318
7356 11.000000 7.655558 9.407053
7357 11.000000 7.636212 6.711248
7358 11.000000 7.628422 1.325021
7359 11.000000 7.624664 1.730075
7360 11.000000 7.604426 8.262295
7361 11.000000 7.600000 11.000000
7362 11.000000 7.582204 8.613395
7363 11.000000 7.580353 8.895351
7364 11.000000 7.578117 7.649965
7365 11.000000 7.577663 4.074356
7366 11.000000 7.561727 4.556759
7367 11.000000 7.559292 5.023519
7368 11.000000 7.553607 3.132864
7369 11.000000 7.534473 3.587015
7370 11.000000 7.532358 10.852444
7371 11.000000 7.530725 7.066740
7372 11.000000 7.524589 9.696377
7373 11.000000 7.518575 2.129696
7374 11.000000 7.516026 10.027186
7375 11.000000 7.515434 10.297010
7376 11.000000 7.512286 7.962365
7377 11.000000 7.508862 9.179308
7378 11.000000 7.506152 1.151431
7379 11.000000 7.498622 1.502700
7380 11.000000 7.481807 2.454446
7381 11.000000 7.471015 10.678812
7382 11.000000 7.452973 1.902828
7383 11.000000 7.435505 10.496526
7384 11.000000 7.410182 6.086031
7385 11.000000 7.407345 1.320008
7386 11.000000 7.403776 5.696284
7387 11.000000 7.400000 11.000000
7388 11.000000 7.393609 9.444628
7389 11.000000 7.370388 1.658029
7390 11.000000 7.363533 7.402612
7391 11.000000 7.357345 8.437785
7392 11.000000 7.351044 8.721505
7393 11.000000 7.350278 6.442168
7394 11.000000 7.344687 2.716729
7395 11.000000 7.328519 8.994575
7396 11.000000 7.322407 10.844512
7397 11.000000 7.313166 8.136362
7398 11.000000 7.311733 10.223746
7399 11.000000 7.302479 9.905120
7400 11.000000 7.288342 1.176793
7401 11.000000 7.275002 2.195571
7402 11.000000 7.274111 7.793122
7403 11.000000 7.268097 6.772485
7404 11.000000 7.255656 9.225384
7405 11.000000 7.251787 10.665456
7406 11.000000 7.240471 1.422770
7407 11.000000 7.236659 5.313333
7408 11.000000 7.233676 9.667579
7409 11.000000 7.233560 10.446096
7410 11.000000 7.222950 7.076094
7411 11.000000 7.221087 3.013995
7412 11.000000 7.206648 1.889398
7413 11.000000 7.200000 11.000000
7414 11.000000 7.195583 3.384736
7415 11.000000 7.179673 3.843125
7416 11.000000 7.161004 4.332020
7417 11.000000 7.157274 1.641889
7418 11.000000 7.157013 4.811167
7419 11.000000 7.152838 8.848064
7420 11.000000 7.135580 9.454624
7421 11.000000 7.124044 10.115059
7422 11.000000 7.121632 8.319015
7423 11.000000 7.115969 8.599635
7424 11.000000 7.113932 2.436834
7425 11.000000 7.112584 10.824279
7426 11.000000 7.109545 1.166449
7427 11.000000 7.103260 7.559370
7428 11.000000 7.095228 5.813938
7429 11.000000 7.066353 8.040150
7430 11.000000 7.061370 9.049483
7431 11.000000 7.058993 1.337518
7432 11.000000 7.058410 6.192410
7433 11.000000 7.046165 10.604240
7434 11.000000 7.042039 7.248453
7435 11.000000 7.041590 10.355834
7436 11.000000 7.038183 2.074825
7437 11.000000 7.032992 9.254015
7438 11.000000 7.019624 9.863587
7439 11.000000 7.000886 6.545990
7440 11.000000 7.000000 11.000000
7441 11.000000 6.984566 1.530921
7442 11.000000 6.980009 2.750347
7443 11.000000 6.976050 7.807995
7444 11.000000 6.960065 9.648286
7445 11.000000 6.953886 8.809415
7446 11.000000 6.939826 1.788139
7447 11.000000 6.938255 6.887889
7448 11.000000 6.933829 8.447764
7449 11.000000 6.924519 10.822946
7450 11.000000 6.908164 1.165397
7451 11.000000 6.897095 5.151069
7452 11.000000 6.896886 9.432646
7453 11.000000 6.889314 5.551131
7454 11.000000 6.883187 10.129536
7455 11.000000 6.871700 8.214068
7456 11.000000 6.862004 3.120792
7457 11.000000 6.859266 10.628991
7458 11.000000 6.854571 7.446433
7459 11.000000 6.852314 8.986666
7460 11.000000 6.851822 2.252389
7461 11.000000 6.843999 9.204267
7462 11.000000 6.841821 8.631250
7463 11.000000 6.837212 10.410312
7464 11.000000 6.834651 1.351100
7465 11.000000 6.826006 3.539351
7466 11.000000 6.800000 11.000000
7467 11.000000 6.785067 3.993645
7468 11.000000 6.784249 5.946685
7469 11.000000 6.783764 4.414125
7470 11.000000 6.779251 7.987645
7471 11.000000 6.775820 7.153298
7472 11.000000 6.771425 7.676936
7473 11.000000 6.768424 1.572099
7474 11.000000 6.765270 1.984761
7475 11.000000 6.758770 2.527474
7476 11.000000 6.756003 9.874805
7477 11.000000 6.750515 4.773532
7478 11.000000 6.745375 6.296874
7479 11.000000 6.729637 10.831629
7480 11.000000 6.728048 9.633322
7481 11.000000 6.723531 8.800999
7482 11.000000 6.716963 8.415767
7483 11.000000 6.705922 1.167005
7484 11.000000 6.705442 9.399070
7485 11.000000 6.703494 6.621594
7486 11.000000 6.670668 10.184919
7487 11.000000 6.670499 10.640040
7488 11.000000 6.649868 1.763541
7489 11.000000 6.633853 8.205306
7490 11.000000 6.630131 6.907288
7491 11.000000 6.626735 1.359964
7492 11.000000 6.623002 9.246374
7493 11.000000 6.621334 10.437699
7494 11.000000 6.619170 2.848550
7495 11.000000 6.618415 7.410745
7496 11.000000 6.617922 8.600214
7497 11.000000 6.606602 7.838219
7498 11.000000 6.600000 11.000000
7499 11.000000 6.581056 5.414651
7500 11.000000 6.563330 2.265761
7501 11.000000 6.539179 5.740681
7502 11.000000 6.534164 10.840836
7503 11.000000 6.525511 9.506647
7504 11.000000 6.525107 5.083646
7505 11.000000 6.521982 1.548975
7506 11.000000 6.510461 8.030668
7507 11.000000 6.506929 8.400373
7508 11.000000 6.506576 3.257983
7509 11.000000 6.504669 7.174680
7510 11.000000 6.504326 7.625106
7511 11.000000 6.504308 1.169096
7512 11.000000 6.503377 9.978254
7513 11.000000 6.499940 2.010135
7514 11.000000 6.499938 9.745035
7515 11.000000 6.495748 9.095331
7516 11.000000 6.484971 6.079952
7517 11.000000 6.473038 10.657276
7518 11.000000 6.459929 6.390683
7519 11.000000 6.439790 10.258791
7520 11.000000 6.434607 9.325811
7521 11.000000 6.427007 4.111204
7522 11.000000 6.425737 3.678253
7523 11.000000 6.424374 2.562876
7524 11.000000 6.422972 6.695033
7525 11.000000 6.403857 4.481552
7526 11.000000 6.402796 1.348119
7527 11.000000 6.401753 8.215664
7528 11.000000 6.400000 11.000000
7529 11.000000 6.397259 8.927397
7530 11.000000 6.391603 1.768943
7531 11.000000 6.388068 10.470758
7532 11.000000 6.376059 7.831458
7533 11.000000 6.370340 7.412095
7534 11.000000 6.361455 4.803356
7535 11.000000 6.356889 6.957647
7536 11.000000 6.332328 10.817889
7537 11.000000 6.310089 9.578534
7538 11.000000 6.301936 8.755726
7539 11.000000 6.294084 2.960467
7540 11.000000 6.293989 9.151010
7541 11.000000 6.293815 1.164758
7542 11.000000 6.288259 8.025871
7543 11.000000 6.285741 1.551833
7544 11.000000 6.274509 2.265253
7545 11.000000 6.266350 7.630023
7546 11.000000 6.261598 10.114790
7547 11.000000 6.256547 5.269699
7548 11.000000 6.254144 7.202586
7549 11.000000 6.252234 5.561906
7550 11.000000 6.242686 5.875752
7551 11.000000 6.241339 10.618746
7552 11.000000 6.236066 9.845010
7553 11.000000 6.226217 2.000500
7554 11.000000 6.225244 6.510528
7555 11.000000 6.222630 8.571471
7556 11.000000 6.212203 9.373492
7557 11.000000 6.210227 6.186127
7558 11.000000 6.200000 11.000000
7559 11.000000 6.184293 8.969658
7560 11.000000 6.182197 1.348126
7561 11.000000 6.177510 10.359398
7562 11.000000 6.167948 7.829459
7563 11.000000 6.155133 6.776333
7564 11.000000 6.152164 10.853319
7565 11.000000 6.144748 2.638179
7566 11.000000 6.144092 7.433501
7567 11.000000 6.129761 1.772748
7568 11.000000 6.116725 3.364814
7569 11.000000 6.114900 3.865805
7570 11.000000 6.112390 5.000243
7571 11.000000 6.110778 7.003180
7572 11.000000 6.097179 8.376121
7573 11.000000 6.092990 8.784419
7574 11.000000 6.081827 1.163846
7575 11.000000 6.080833 4.275888
7576 11.000000 6.072368 9.643572
7577 11.000000 6.065873 10.710786
7578 11.000000 6.054140 1.553145
7579 11.000000 6.051817 7.630606
7580 11.000000 6.049265 9.173281
7581 11.000000 6.046697 8.572246
7582 11.000000 6.043148 4.643671
7583 11.000000 6.034188 7.241161
7584 11.000000 6.033520 10.098460
7585 11.000000 6.032205 6.388847
7586 11.000000 6.028103 2.345440
7587 11.000000 6.017164 10.521778
7588 11.000000 6.000000 11.000000
7589 11.000000 5.993488 5.645691
7590 11.000000 5.986177 5.947366
7591 11.000000 5.985450 9.433861
7592 11.000000 5.972687 6.636429
7593 11.000000 5.963243 5.317751
7594 11.000000 5.962625 1.342891
7595 11.000000 5.962188 2.053620
7596 11.000000 5.961078 8.226308
7597 11.000000 5.954719 2.963589
7598 11.000000 5.929743 7.426824
7599 11.000000 5.929329 10.857617
7600 11.000000 5.928887 8.970167
7601 11.000000 5.922240 10.317980
7602 11.000000 5.921282 6.186305
7603 11.000000 5.920518 9.854698
7604 11.000000 5.919500 8.034217
7605 11.000000 5.910270 7.063326
7606 11.000000 5.896439 1.802602
7607 11.000000 5.889897 6.858698
7608 11.000000 5.878721 8.698520
7609 11.000000 5.874186 8.451826
7610 11.000000 5.865497 1.160785
7611 11.000000 5.847938 10.688632
7612 11.000000 5.847364 3.632021
7613 11.000000 5.838178 1.550061
7614 11.000000 5.831338 4.979423
7615 11.000000 5.822653 2.612235
7616 11.000000 5.815196 9.278162
7617 11.000000 5.813561 7.233506
7618 11.000000 5.810219 6.451645
7619 11.000000 5.800812 4.022204
7620 11.000000 5.800000 11.000000
7621 11.000000 5.781610 7.871389
7622 11.000000 5.772274 10.508326
7623 11.000000 5.766510 9.605123
7624 11.000000 5.764169 10.107543
7625 11.000000 5.759641 4.365755
7626 11.000000 5.758846 5.793668
7627 11.000000 5.752692 4.667495
7628 11.000000 5.745700 6.690502
7629 11.000000 5.743911 2.271821
7630 11.000000 5.743494 8.089168
7631 11.000000 5.743423 5.514113
7632 11.000000 5.742346 1.335970
7633 11.000000 5.728883 8.311449
7634 11.000000 5.719198 3.244051
7635 11.000000 5.715087 7.027023
7636 11.000000 5.714430 10.842183
7637 11.000000 5.714401 8.828662
7638 11.000000 5.713027 6.045260
7639 11.000000 5.685763 9.079168
7640 11.000000 5.684225 6.267255
7641 11.000000 5.682797 7.700724
7642 11.000000 5.676722 5.250831
7643 11.000000 5.666039 1.737631
7644 11.000000 5.655916 10.321566
7645 11.000000 5.654514 1.986348
7646 11.000000 5.646831 8.575665
7647 11.000000 5.642618 1.158119
7648 11.000000 5.631297 6.856663
7649 11.000000 5.618448 9.902960
7650 11.000000 5.614645 10.663963
7651 11.000000 5.611702 6.520591
7652 11.000000 5.603442 1.512642
7653 11.000000 5.600000 11.000000
7654 11.000000 5.592952 7.509070
7655 11.000000 5.590713 2.890886
7656 11.000000 5.576810 9.383634
7657 11.000000 5.550927 7.915843
7658 11.000000 5.538369 8.140438
7659 11.000000 5.534396 4.792321
7660 11.000000 5.534220 5.662994
7661 11.000000 5.533748 5.032292
7662 11.000000 5.530451 5.922291
7663 11.000000 5.525425 2.533258
7664 11.000000 5.518891 3.824675
7665 11.000000 5.512172 3.492284
7666 11.000000 5.511636 6.691996
7667 11.000000 5.510772 10.476414
7668 11.000000 5.506748 1.316294
7669 11.000000 5.506217 10.830677
7670 11.000000 5.500880 6.345785
7671 11.000000 5.491513 8.373466
7672 11.000000 5.487872 4.151037
7673 11.000000 5.485043 8.844754
7674 11.000000 5.479382 7.300846
7675 11.000000 5.476857 10.165691
7676 11.000000 5.466380 5.430135
7677 11.000000 5.462685 7.710013
7678 11.000000 5.460676 9.678525
7679 11.000000 5.458635 6.140331
7680 11.000000 5.457928 4.471417
7681 11.000000 5.454231 2.221291
7682 11.000000 5.438248 1.736262
7683 11.000000 5.420585 9.128514
7684 11.000000 5.407353 1.143732
7685 11.000000 5.400000 11.000000
7686 11.000000 5.395489 6.513232
7687 11.000000 5.390716 7.487147
7688 11.000000 5.379434 10.640437
7689 11.000000 5.376141 1.514150
7690 11.000000 5.369975 8.613781
7691 11.000000 5.365777 5.212379
7692 11.000000 5.360366 1.950600
7693 11.000000 5.351980 5.792344
7694 11.000000 5.340259 10.358341
7695 11.000000 5.333829 7.039363
7696 11.000000 5.323235 9.965389
7697 11.000000 5.316699 3.194988
7698 11.000000 5.316533 8.130953
7699 11.000000 5.311511 10.835028
7700 11.000000 5.305014 6.317182
7701 11.000000 5.304036 4.713179
7702 11.000000 5.296867 5.987633
7703 11.000000 5.285269 7.901531
7704 11.000000 5.282545 9.419004
7705 11.000000 5.279066 7.234109
7706 11.000000 5.278742 1.296435
7707 11.000000 5.275746 5.586067
7708 11.000000 5.273053 2.822381
7709 11.000000 5.256910 4.965428
7710 11.000000 5.233969 3.590018
7711 11.000000 5.231963 8.366569
7712 11.000000 5.229634 2.481636
7713 11.000000 5.227342 7.666497
7714 11.000000 5.221746 4.249965
7715 11.000000 5.215556 3.926231
7716 11.000000 5.215082 6.857340
7717 11.000000 5.211034 6.154992
7718 11.000000 5.206203 8.891934
7719 11.000000 5.200000 11.000000
7720 11.000000 5.196384 10.499317
7721 11.000000 5.194359 5.384830
7722 11.000000 5.189685 7.420308
7723 11.000000 5.173349 1.711771
7724 11.000000 5.172962 10.191925
7725 11.000000 5.164837 2.172625
7726 11.000000 5.164456 1.482495
7727 11.000000 5.156304 9.734772
7728 11.000000 5.155457 10.690699
7729 11.000000 5.151942 5.776888
7730 11.000000 5.145323 1.155727
7731 11.000000 5.139866 4.512730
7732 11.000000 5.115381 7.070538
7733 11.000000 5.109597 9.163084
7734 11.000000 5.109215 5.174461
7735 11.000000 5.106421 6.669030
7736 11.000000 5.103322 10.852873
7737 11.000000 5.093783 5.973633
7738 11.000000 5.080450 8.647412
7739 11.000000 5.071255 1.937063
7740 11.000000 5.056714 4.761173
7741 11.000000 5.048917 5.557653
7742 11.000000 5.045844 8.092597
7743 11.000000 5.028741 10.378517
7744 11.000000 5.027932 1.323842
7745 11.000000 5.019610 3.331199
7746 11.000000 5.017382 9.977179
7747 11.000000 5.012902 7.822911
7748 11.000000 5.004475 6.872330
7749 11.000000 5.004009 7.282310
7750 11.000000 5.000000 11.000000
7751 11.000000 4.994162 6.485411
7752 11.000000 4.993199 7.560187
7753 11.000000 4.992397 4.991444
7754 11.000000 4.988549 2.991959
7755 11.000000 4.980062 5.784066
7756 11.000000 4.980049 8.369066
7757 11.000000 4.968145 4.143753
7758 11.000000 4.967310 9.496924
7759 11.000000 4.965159 10.618974
7760 11.000000 4.963095 3.650895
7761 11.000000 4.958452 5.344831
7762 11.000000 4.947849 1.552020
7763 11.000000 4.943872 2.658085
7764 11.000000 4.942547 2.328318
7765 11.000000 4.936760 4.388268
7766 11.000000 4.929377 3.898115
7767 11.000000 4.924257 10.811578
7768 11.000000 4.912041 1.165347
7769 11.000000 4.887046 6.315598
7770 11.000000 4.886266 6.672212
7771 11.000000 4.882408 5.611445
7772 11.000000 4.881794 1.777219
7773 11.000000 4.874637 10.190016
7774 11.000000 4.866823 7.084098
7775 11.000000 4.862175 8.912093
7776 11.000000 4.850407 5.153620
7777 11.000000 4.848028 4.620868
7778 11.000000 4.830046 4.843900
7779 11.000000 4.822182 2.072520
7780 11.000000 4.821150 9.748342
7781 11.000000 4.813998 10.454675
7782 11.000000 4.804928 5.444708
7783 11.000000 4.803515 6.138591
7784 11.000000 4.800000 11.000000
7785 11.000000 4.799543 1.365442
7786 11.000000 4.797078 9.226132
7787 11.000000 4.777656 7.421283
7788 11.000000 4.771904 8.596263
7789 11.000000 4.769959 6.875205
7790 11.000000 4.759198 7.955114
7791 11.000000 4.749865 6.495706
7792 11.000000 4.748556 3.130775
7793 11.000000 4.745974 10.839776
7794 11.000000 4.743071 8.243871
7795 11.000000 4.735080 3.451681
7796 11.000000 4.734895 7.680168
7797 11.000000 4.733055 10.656346
7798 11.000000 4.716116 4.992826
7799 11.000000 4.713541 9.976857
7800 11.000000 4.710456 5.280396
7801 11.000000 4.706828 4.236279
7802 11.000000 4.699809 1.583890
7803 11.000000 4.699009 1.180159
7804 11.000000 4.697937 5.945756
7805 11.000000 4.695668 3.994158
7806 11.000000 4.692936 4.460312
7807 11.000000 4.678772 2.416017
7808 11.000000 4.674652 3.726465
7809 11.000000 4.672709 7.219262
7810 11.000000 4.664330 2.775977
7811 11.000000 4.651243 10.282227
7812 11.000000 4.644538 6.322049
7813 11.000000 4.633491 4.761567
7814 11.000000 4.630403 1.842868
7815 11.000000 4.629228 6.685286
7816 11.000000 4.616598 9.508849
7817 11.000000 4.600691 6.117311
7818 11.000000 4.600000 11.000000
7819 11.000000 4.596654 5.120081
7820 11.000000 4.579074 5.788865
7821 11.000000 4.568006 10.482815
7822 11.000000 4.564492 10.843565
7823 11.000000 4.563946 1.381500
7824 11.000000 4.555578 6.973536
7825 11.000000 4.545314 2.133202
7826 11.000000 4.537434 4.594719
7827 11.000000 4.521601 8.824945
7828 11.000000 4.513140 10.089370
7829 11.000000 4.509868 10.678127
7830 11.000000 4.504848 4.926489
7831 11.000000 4.504725 3.310159
7832 11.000000 4.494980 1.186323
7833 11.000000 4.493421 9.139721
7834 11.000000 4.489980 8.448983
7835 11.000000 4.488996 3.035438
7836 11.000000 4.486548 4.133905
7837 11.000000 4.486449 5.622390
7838 11.000000 4.482567 9.768421
7839 11.000000 4.475199 7.480777
7840 11.000000 4.472030 4.381179
7841 11.000000 4.465395 8.090481
7842 11.000000 4.462111 6.489926
7843 11.000000 4.461802 3.883584
7844 11.000000 4.460813 1.607179
7845 11.000000 4.455293 7.784540
7846 11.000000 4.454321 3.586057
7847 11.000000 4.450702 5.972691
7848 11.000000 4.416751 5.425385
7849 11.000000 4.409543 6.226227
7850 11.000000 4.408697 7.198257
7851 11.000000 4.404658 6.770473
7852 11.000000 4.400000 11.000000
7853 11.000000 4.398721 2.463587
7854 11.000000 4.398678 4.751861
7855 11.000000 4.375771 10.288385
7856 11.000000 4.375500 1.860981
7857 11.000000 4.368127 2.787903
7858 11.000000 4.367333 10.853714
7859 11.000000 4.344334 10.503221
7860 11.000000 4.328678 5.798435
7861 11.000000 4.327449 1.385413
7862 11.000000 4.321101 4.562730
7863 11.000000 4.319016 9.421267
7864 11.000000 4.308975 4.266887
7865 11.000000 4.303993 1.180444
7866 11.000000 4.295133 9.988112
7867 11.000000 4.290872 10.690832
7868 11.000000 4.280631 3.347407
7869 11.000000 4.279318 3.773072
7870 11.000000 4.278561 5.288599
7871 11.000000 4.277712 5.548625
7872 11.000000 4.272372 2.136012
7873 11.000000 4.267699 4.048906
7874 11.000000 4.238517 3.093963
7875 11.000000 4.225295 6.977640
7876 11.000000 4.219006 1.612508
7877 11.000000 4.218756 6.350163
7878 11.000000 4.218067 6.048224
7879 11.000000 4.217591 8.683758
7880 11.000000 4.210263 5.081076
7881 11.000000 4.205042 6.631084
7882 11.000000 4.203145 4.419848
7883 11.000000 4.200000 11.000000
7884 11.000000 4.194104 8.284224
7885 11.000000 4.191255 9.688581
7886 11.000000 4.189010 3.555190
7887 11.000000 4.162100 10.850747
7888 11.000000 4.161981 7.319711
7889 11.000000 4.156273 7.622030
7890 11.000000 4.149607 2.620400
7891 11.000000 4.144010 10.197015
7892 11.000000 4.142597 9.068506
7893 11.000000 4.139943 7.940506
7894 11.000000 4.132903 10.422302
7895 11.000000 4.129924 5.712169
7896 11.000000 4.123296 3.921302
7897 11.000000 4.117191 1.186258
7898 11.000000 4.115133 1.859727
7899 11.000000 4.111163 10.623532
7900 11.000000 4.111049 4.227275
7901 11.000000 4.088747 2.863070
7902 11.000000 4.087130 1.392928
7903 11.000000 4.086797 5.451599
7904 11.000000 4.084375 2.368649
7905 11.000000 4.064467 5.232222
7906 11.000000 4.051558 4.772148
7907 11.000000 4.048981 3.319593
7908 11.000000 4.037907 3.734443
7909 11.000000 4.032341 4.989987
7910 11.000000 4.030446 9.922372
7911 11.000000 4.011694 4.073386
7912 11.000000 4.000283 10.793238
7913 11.000000 4.000063 5.909206
7914 11.000000 4.000000 11.000000
7915 11.000000 3.995748 9.398533
7916 11.000000 3.988816 6.205585
7917 11.000000 3.980453 6.807814
7918 11.000000 3.977921 3.090075
7919 11.000000 3.968484 1.616712
7920 11.000000 3.968269 2.101433
7921 11.000000 3.960327 6.474769
7922 11.000000 3.957039 3.543530
7923 11.000000 3.925722 7.121881
7924 11.000000 3.922479 1.191624
7925 11.000000 3.914066 10.584760
7926 11.000000 3.907541 10.372306
7927 11.000000 3.903806 8.471339
7928 11.000000 3.903770 5.641531
7929 11.000000 3.903587 3.899387
7930 11.000000 3.901345 10.140610
7931 11.000000 3.893694 4.601282
7932 11.000000 3.890909 2.608373
7933 11.000000 3.883356 4.824413
7934 11.000000 3.866546 9.688103
7935 11.000000 3.860163 5.174037
7936 11.000000 3.851744 1.399518
7937 11.000000 3.851219 10.837671
7938 11.000000 3.846987 2.873388
7939 11.000000 3.845344 5.393604
7940 11.000000 3.837298 1.845186
7941 11.000000 3.832809 8.817401
7942 11.000000 3.832307 7.462107
7943 11.000000 3.821214 8.126627
7944 11.000000 3.820408 3.404043
7945 11.000000 3.819359 3.721215
7946 11.000000 3.807443 4.407662
7947 11.000000 3.807437 3.223599
7948 11.000000 3.800377 2.347549
7949 11.000000 3.800000 11.000000
7950 11.000000 3.793541 7.778627
7951 11.000000 3.776972 6.071092
7952 11.000000 3.768665 5.006649
7953 11.000000 3.751637 9.152760
7954 11.000000 3.750031 10.670144
7955 11.000000 3.728470 6.631581
7956 11.000000 3.722622 9.957457
7957 11.000000 3.721498 4.217436
7958 11.000000 3.719417 1.191430
7959 11.000000 3.715532 3.569259
7960 11.000000 3.705921 5.816348
7961 11.000000 3.705622 3.042093
7962 11.000000 3.704196 1.616383
7963 11.000000 3.695667 4.765268
7964 11.000000 3.680549 10.466940
7965 11.000000 3.679885 2.098486
7966 11.000000 3.676094 2.734215
7967 11.000000 3.670434 10.240311
7968 11.000000 3.659218 4.547160
7969 11.000000 3.656060 6.337742
7970 11.000000 3.656024 10.853477
7971 11.000000 3.651300 6.928647
7972 11.000000 3.645422 9.452833
7973 11.000000 3.639250 5.543099
7974 11.000000 3.625314 1.399740
7975 11.000000 3.615238 2.521802
7976 11.000000 3.612780 3.398957
7977 11.000000 3.600000 11.000000
7978 11.000000 3.598208 5.252173
7979 11.000000 3.594728 3.238763
7980 11.000000 3.580600 7.256525
7981 11.000000 3.578295 4.332920
7982 11.000000 3.575924 4.085355
7983 11.000000 3.559293 1.848333
7984 11.000000 3.558963 2.908195
7985 11.000000 3.555121 9.748191
7986 11.000000 3.549167 4.993587
7987 11.000000 3.548598 10.684929
7988 11.000000 3.522638 8.442994
7989 11.000000 3.518478 3.893478
7990 11.000000 3.517817 2.307901
7991 11.000000 3.515935 1.177866
7992 11.000000 3.485268 6.062859
7993 11.000000 3.479699 4.722106
7994 11.000000 3.474392 3.132422
7995 11.000000 3.469571 10.058978
7996 11.000000 3.467468 8.865929
7997 11.000000 3.460959 10.512745
7998 11.000000 3.449308 10.853914
7999 11.000000 3.446456 8.028490
8000 11.000000 3.444284 2.705570
8001 11.000000 3.437528 10.309114
8002 11.000000 3.437506 1.614952
8003 11.000000 3.427588 7.638106
8004 11.000000 3.426920 1.375184
8005 11.000000 3.419924 6.626813
8006 11.000000 3.415962 3.696203
8007 11.000000 3.415180 4.492989
8008 11.000000 3.412668 5.761729
8009 11.000000 3.408062 2.092754
8010 11.000000 3.400000 11.000000
8011 11.000000 3.385729 5.461767
8012 11.000000 3.381182 2.973008
8013 11.000000 3.374650 4.252847
8014 11.000000 3.373364 9.199684
8015 11.000000 3.361955 2.499221
8016 11.000000 3.345347 4.054981
8017 11.000000 3.329115 9.517723
8018 11.000000 3.323507 10.702095
8019 11.000000 3.322622 4.907800
8020 11.000000 3.313230 3.861157
8021 11.000000 3.306536 5.163798
8022 11.000000 3.302900 1.198985
8023 11.000000 3.302453 6.957614
8024 11.000000 3.297097 3.523651
8025 11.000000 3.297066 1.882829
8026 11.000000 3.296351 9.838490
8027 11.000000 3.293781 6.343470
8028 11.000000 3.289299 2.819934
8029 11.000000 3.260438 2.302985
8030 11.000000 3.241670 10.522705
8031 11.000000 3.239185 7.330942
8032 11.000000 3.233875 1.446140
8033 11.000000 3.232755 10.848951
8034 11.000000 3.217347 4.658088
8035 11.000000 3.206994 2.648936
8036 11.000000 3.205967 10.109281
8037 11.000000 3.204861 10.316587
8038 11.000000 3.200000 11.000000
8039 11.000000 3.198081 3.352926
8040 11.000000 3.187699 3.693103
8041 11.000000 3.174480 1.691229
8042 11.000000 3.170396 4.405604
8043 11.000000 3.170313 6.015662
8044 11.000000 3.165758 8.628511
8045 11.000000 3.155499 2.110949
8046 11.000000 3.121704 5.392448
8047 11.000000 3.119681 4.160294
8048 11.000000 3.118745 1.161457
8049 11.000000 3.116478 2.478599
8050 11.000000 3.109839 8.272974
8051 11.000000 3.108126 3.929488
8052 11.000000 3.105714 5.695131
8053 11.000000 3.095256 3.178010
8054 11.000000 3.086519 10.666158
8055 11.000000 3.075632 4.904379
8056 11.000000 3.060542 7.886702
8057 11.000000 3.059377 1.333408
8058 11.000000 3.058792 8.973502
8059 11.000000 3.057072 9.634117
8060 11.000000 3.055484 3.515752
8061 11.000000 3.047545 1.925095
8062 11.000000 3.047205 6.678358
8063 11.000000 3.042826 10.846600
8064 11.000000 3.030055 9.316868
8065 11.000000 3.023258 9.926989
8066 11.000000 3.020010 3.006487
8067 11.000000 3.019393 2.305603
8068 11.000000 3.011346 10.432598
8069 11.000000 3.000000 11.000000
8070 11.000000 2.992008 1.543261
8071 11.000000 2.971826 5.155632
8072 11.000000 2.968226 3.736036
8073 11.000000 2.967781 3.319435
8074 11.000000 2.954742 4.605078
8075 11.000000 2.947472 7.534144
8076 11.000000 2.942601 6.298756
8077 11.000000 2.940113 7.118364
8078 11.000000 2.933804 10.201353
8079 11.000000 2.920244 2.131385
8080 11.000000 2.915104 1.760113
8081 11.000000 2.913474 4.323569
8082 11.000000 2.907726 1.168907
8083 11.000000 2.904908 2.852794
8084 11.000000 2.881399 10.605400
8085 11.000000 2.878164 4.014072
8086 11.000000 2.874561 10.805215
8087 11.000000 2.856806 3.088856
8088 11.000000 2.832839 1.364242
8089 11.000000 2.829789 5.923043
8090 11.000000 2.826543 8.609489
8091 11.000000 2.826361 5.496328
8092 11.000000 2.813478 1.961408
8093 11.000000 2.812406 2.685228
8094 11.000000 2.809877 3.519564
8095 11.000000 2.800000 11.000000
8096 11.000000 2.795767 4.848209
8097 11.000000 2.793595 9.682187
8098 11.000000 2.776786 9.974312
8099 11.000000 2.770719 8.213744
8100 11.000000 2.767380 10.394096
8101 11.000000 2.767017 3.277381
8102 11.000000 2.756970 1.588603
8103 11.000000 2.754616 3.782534
8104 11.000000 2.739405 9.364575
8105 11.000000 2.732749 2.507383
8106 11.000000 2.724480 9.005569
8107 11.000000 2.717369 6.877909
8108 11.000000 2.706088 2.905206
8109 11.000000 2.703157 1.176132
8110 11.000000 2.702041 7.871623
8111 11.000000 2.699965 10.836597
8112 11.000000 2.696624 4.192864
8113 11.000000 2.687835 1.791198
8114 11.000000 2.682244 10.639704
8115 11.000000 2.674285 5.161149
8116 11.000000 2.672228 6.569099
8117 11.000000 2.669248 4.521075
8118 11.000000 2.633648 10.180472
8119 11.000000 2.624191 2.313959
8120 11.000000 2.619782 7.538788
8121 11.000000 2.616854 1.377526
8122 11.000000 2.610594 2.721603
8123 11.000000 2.606464 3.091128
8124 11.000000 2.603421 7.213831
8125 11.000000 2.600000 11.000000
8126 11.000000 2.589327 6.249169
8127 11.000000 2.571317 3.359487
8128 11.000000 2.571132 5.699381
8129 11.000000 2.563489 3.619943
8130 11.000000 2.560882 3.937248
8131 11.000000 2.555921 2.510653
8132 11.000000 2.549524 10.451526
8133 11.000000 2.538714 1.605553
8134 11.000000 2.527710 9.890326
8135 11.000000 2.516720 10.821896
8136 11.000000 2.516123 8.742523
8137 11.000000 2.511409 8.432781
8138 11.000000 2.508592 4.828712
8139 11.000000 2.508459 9.609664
8140 11.000000 2.503948 2.149020
8141 11.000000 2.500825 1.179048
8142 11.000000 2.477380 1.805205
8143 11.000000 2.461322 5.978295
8144 11.000000 2.460515 10.638170
8145 11.000000 2.457372 5.412429
8146 11.000000 2.452023 4.261323
8147 11.000000 2.448048 9.251290
8148 11.000000 2.438831 2.886462
8149 11.000000 2.423825 8.102416
8150 11.000000 2.421472 2.361444
8151 11.000000 2.413522 10.288127
8152 11.000000 2.404947 1.383446
8153 11.000000 2.400000 11.000000
8154 11.000000 2.399250 6.868092
8155 11.000000 2.397714 2.630514
8156 11.000000 2.388662 1.989956
8157 11.000000 2.382372 3.153962
8158 11.000000 2.372719 7.783776
8159 11.000000 2.358714 8.988391
8160 11.000000 2.353900 6.546534
8161 11.000000 2.346749 10.054585
8162 11.000000 2.344143 4.556586
8163 11.000000 2.343265 5.102262
8164 11.000000 2.332720 3.431127
8165 11.000000 2.328121 10.849618
8166 11.000000 2.320123 3.722486
8167 11.000000 2.318885 7.454534
8168 11.000000 2.315998 1.609523
8169 11.000000 2.301982 7.151115
8170 11.000000 2.299510 1.183977
8171 11.000000 2.286909 2.201106
8172 11.000000 2.282185 4.010053
8173 11.000000 2.274525 10.480800
8174 11.000000 2.267462 10.685652
8175 11.000000 2.256351 1.812356
8176 11.000000 2.255588 9.472020
8177 11.000000 2.250071 6.258323
8178 11.000000 2.248441 5.690069
8179 11.000000 2.230679 2.450938
8180 11.000000 2.225959 8.352053
8181 11.000000 2.223538 9.775140
8182 11.000000 2.214494 8.656872
8183 11.000000 2.206519 2.717404
8184 11.000000 2.200000 11.000000
8185 11.000000 2.189868 1.394404
8186 11.000000 2.186741 2.972907
8187 11.000000 2.184381 4.822737
8188 11.000000 2.172514 5.987261
8189 11.000000 2.165291 5.367396
8190 11.000000 2.164159 10.260934
8191 11.000000 2.162747 2.032069
8192 11.000000 2.144559 4.312970
8193 11.000000 2.125041 7.987718
8194 11.000000 2.117152 10.844422
8195 11.000000 2.116173 3.239890
8196 11.000000 2.110143 9.217356
8197 11.000000 2.105976 6.758174
8198 11.000000 2.103366 1.185291
8199 11.000000 2.099800 8.920197
8200 11.000000 2.097156 7.664816
8201 11.000000 2.075540 10.650392
8202 11.000000 2.069826 10.017783
8203 11.000000 2.065585 1.613867
8204 11.000000 2.063825 3.529241
8205 11.000000 2.059858 7.038075
8206 11.000000 2.056860 2.268712
8207 11.000000 2.047523 5.081600
8208 11.000000 2.046772 6.461460
8209 11.000000 2.041962 7.344040
8210 11.000000 2.034491 4.568540
8211 11.000000 2.033576 1.840438
8212 11.000000 2.023210 10.452073
8213 11.000000 2.022900 3.809032
8214 11.000000 2.011805 4.078660
8215 11.000000 2.008430 9.525380
8216 11.000000 2.007844 8.234916
8217 11.000000 2.005629 2.523340
8218 11.000000 2.000000 11.000000
8219 11.000000 1.987660 5.584350
8220 11.000000 1.975306 1.384444
8221 11.000000 1.965599 2.801103
8222 11.000000 1.956950 5.865347
8223 11.000000 1.954191 8.528920
8224 11.000000 1.933126 6.167418
8225 11.000000 1.921402 10.832118
8226 11.000000 1.921197 9.782922
8227 11.000000 1.918602 2.073476
8228 11.000000 1.908597 1.176176
8229 11.000000 1.906654 10.232002
8230 11.000000 1.897260 4.837079
8231 11.000000 1.889544 3.072849
8232 11.000000 1.887074 5.301435
8233 11.000000 1.885387 8.768423
8234 11.000000 1.877233 7.833903
8235 11.000000 1.870181 10.642796
8236 11.000000 1.862442 9.048217
8237 11.000000 1.854597 7.535241
8238 11.000000 1.847808 4.326388
8239 11.000000 1.842068 3.329549
8240 11.000000 1.839732 9.311660
8241 11.000000 1.837337 6.657447
8242 11.000000 1.829104 6.919111
8243 11.000000 1.819973 1.571061
8244 11.000000 1.810973 8.084096
8245 11.000000 1.809740 7.203270
8246 11.000000 1.808697 3.588263
8247 11.000000 1.806110 1.823674
8248 11.000000 1.800000 11.000000
8249 11.000000 1.795147 2.335174
8250 11.000000 1.787293 6.388575
8251 11.000000 1.784319 4.593840
8252 11.000000 1.782910 10.001965
8253 11.000000 1.781851 4.054610
8254 11.000000 1.776446 10.436012
8255 11.000000 1.766688 8.365189
8256 11.000000 1.765613 5.078809
8257 11.000000 1.761983 2.617176
8258 11.000000 1.760478 3.824048
8259 11.000000 1.756919 1.343315
8260 11.000000 1.753982 9.577942
8261 11.000000 1.747985 5.716698
8262 11.000000 1.736483 5.473556
8263 11.000000 1.724924 10.831487
8264 11.000000 1.722348 2.892871
8265 11.000000 1.710647 5.974587
8266 11.000000 1.707389 1.158568
8267 11.000000 1.673832 2.086232
8268 11.000000 1.667477 10.640047
8269 11.000000 1.659626 8.637583
8270 11.000000 1.659444 7.415578
8271 11.000000 1.655577 7.710955
8272 11.000000 1.643136 10.217783
8273 11.000000 1.641895 4.838925
8274 11.000000 1.637878 8.889010
8275 11.000000 1.634924 6.168219
8276 11.000000 1.633899 9.801146
8277 11.000000 1.629886 9.130779
8278 11.000000 1.627110 3.174568
8279 11.000000 1.606560 7.941780
8280 11.000000 1.602907 3.435412
8281 11.000000 1.600000 11.000000
8282 11.000000 1.598309 9.389250
8283 11.000000 1.596953 4.412744
8284 11.000000 1.596844 6.790447
8285 11.000000 1.594759 4.190260
8286 11.000000 1.593470 7.024033
8287 11.000000 1.591578 5.281833
8288 11.000000 1.589173 6.566681
8289 11.000000 1.588237 1.668027
8290 11.000000 1.582641 1.436499
8291 11.000000 1.571160 8.190308
8292 11.000000 1.566272 1.898731
8293 11.000000 1.566098 2.470819
8294 11.000000 1.559656 3.679682
8295 11.000000 1.550332 4.632930
8296 11.000000 1.550159 8.432106
8297 11.000000 1.541365 3.942738
8298 11.000000 1.540990 7.234365
8299 11.000000 1.540056 2.716181
8300 11.000000 1.539179 2.253953
8301 11.000000 1.534816 6.357183
8302 11.000000 1.533907 10.433155
8303 11.000000 1.533637 5.553750
8304 11.000000 1.533362 5.799562
8305 11.000000 1.531925 5.036918
8306 11.000000 1.531653 1.206820
8307 11.000000 1.529209 10.838304
8308 11.000000 1.528196 10.007850
8309 11.000000 1.518295 2.959798
8310 11.000000 1.508896 9.612834
8311 11.000000 1.503146 7.557487
8312 11.000000 1.475826 10.649811
8313 11.000000 1.436200 9.229380
8314 11.000000 1.427644 6.019724
8315 11.000000 1.423408 8.795622
8316 11.000000 1.412068 10.215563
8317 11.000000 1.405213 3.337578
8318 11.000000 1.402652 7.787846
8319 11.000000 1.400000 11.000000
8320 11.000000 1.399039 9.007906
8321 11.000000 1.392702 2.058884
8322 11.000000 1.392391 8.607625
8323 11.000000 1.390353 4.799087
8324 11.000000 1.385079 8.002336
8325 11.000000 1.381219 4.368639
8326 11.000000 1.380434 4.164653
8327 11.000000 1.380281 6.889128
8328 11.000000 1.376565 3.145149
8329 11.000000 1.376057 9.838955
8330 11.000000 1.374753 6.666237
8331 11.000000 1.374562 1.599954
8332 11.000000 1.374518 1.381632
8333 11.000000 1.373357 5.400640
8334 11.000000 1.372933 7.364823
8335 11.000000 1.367612 6.217477
8336 11.000000 1.367442 1.819407
8337 11.000000 1.367415 3.543199
8338 11.000000 1.364713 5.197708
8339 11.000000 1.362677 2.518442
8340 11.000000 1.359987 3.766367
8341 11.000000 1.357610 4.568922
8342 11.000000 1.355341 8.202651
8343 11.000000 1.353785 9.425019
8344 11.000000 1.352606 7.112179
8345 11.000000 1.350050 8.395330
8346 11.000000 1.347394 6.453376
8347 11.000000 1.346004 1.170272
8348 11.000000 1.344870 2.733588
8349 11.000000 1.342243 2.297834
8350 11.000000 1.338940 5.623991
8351 11.000000 1.335344 3.972596
8352 11.000000 1.332298 10.816029
8353 11.000000 1.332156 4.985077
8354 11.000000 1.330571 5.830046
8355 11.000000 1.324274 2.931822
8356 11.000000 1.318086 10.378874
8357 11.000000 1.314385 9.640683
8358 11.000000 1.311190 7.589187
8359 11.000000 1.308414 10.578534
8360 11.000000 1.304089 10.048648
8361 11.000000 1.247744 9.195178
8362 11.000000 1.201157 8.884368
8363 11.000000 1.200000 11.000000
8364 11.000000 1.190039 7.898925
8365 11.000000 1.189155 6.106400
8366 11.000000 1.188627 8.702191
8367 11.000000 1.188624 3.293968
8368 11.000000 1.186499 2.109848
8369 11.000000 1.184938 7.288884
8370 11.000000 1.183755 1.919211
8371 11.000000 1.183003 6.915015
8372 11.000000 1.182790 4.694111
8373 11.000000 1.181194 6.724088
8374 11.000000 1.180953 4.292260
8375 11.000000 1.178317 1.519061
8376 11.000000 1.176867 3.481405
8377 11.000000 1.176094 5.924888
8378 11.000000 1.175573 8.509346
8379 11.000000 1.175163 2.489283
8380 11.000000 1.174739 1.715417
8381 11.000000 1.174709 1.332058
8382 11.000000 1.173923 3.681516
8383 11.000000 1.172879 5.300027
8384 11.000000 1.172350 6.313040
8385 11.000000 1.171459 5.498461
8386 11.000000 1.171349 8.095006
8387 11.000000 1.170322 3.096401
8388 11.000000 1.169663 4.487981
8389 11.000000 1.169012 10.205309
8390 11.000000 1.168277 7.711281
8391 11.000000 1.167828 6.525362
8392 11.000000 1.167617 2.681984
8393 11.000000 1.166482 4.097931
8394 11.000000 1.164842 4.885085
8395 11.000000 1.163931 5.099372
8396 11.000000 1.162529 7.099785
8397 11.000000 1.161309 7.484266
8398 11.000000 1.161297 9.756054
8399 11.000000 1.160598 3.884645
8400 11.000000 1.160384 8.301481
8401 11.000000 1.160067 9.061170
8402 11.000000 1.157972 9.958083
8403 11.000000 1.157950 9.333771
8404 11.000000 1.157850 2.300267
8405 11.000000 1.157846 9.532233
8406 11.000000 1.156740 1.150025
8407 11.000000 1.154755 10.844901
8408 11.000000 1.154414 10.653239
8409 11.000000 1.153472 5.709823
8410 11.000000 1.152697 2.885176
8411 11.000000 1.143277 10.430626
8412 1.200000 11.000000 11.000000
8413 1.400000 11.000000 11.000000
8414 1.600000 11.000000 11.000000
8415 1.800000 11.000000 11.000000
8416 2.000000 11.000000 11.000000
8417 2.200000 11.000000 11.000000
8418 2.400000 11.000000 11.000000
8419 2.600000 11.000000 11.000000
8420 2.800000 11.000000 11.000000
8421 3.000000 11.000000 11.000000
8422 3.200000 11.000000 11.000000
8423 3.400000 11.000000 11.000000
8424 3.600000 11.000000 11.000000
8425 3.800000 11.000000 11.000000
8426 4.000000 11.000000 11.000000
8427 4.200000 11.000000 11.000000
8428 4.400000 11.000000 11.000000
8429 4.600000 11.000000 11.000000
8430 4.800000 11.000000 11.000000
8431 5.000000 11.000000 11.000000
8432 5.200000 11.000000 11.000000
8433 5.400000 11.000000 11.000000
8434 5.600000 11.000000 11.000000
8435 5.800000 11.000000 11.000000
8436 6.000000 11.000000 11.000000
8437 6.200000 11.000000 11.000000
8438 6.400000 11.000000 11.000000
8439 6.600000 11.000000 11.000000
8440 6.800000 11.000000 11.000000
8441 7.000000 11.000000 11.000000
8442 7.200000 11.000000 11.000000
8443 7.400000 11.000000 11.000000
8444 7.600000 11.000000 11.000000
8445 7.800000 11.000000 11.000000
8446 8.000000 11.000000 11.000000
8447 8.200000 11.000000 11.000000
8448 8.400000 11.000000 11.000000
8449 8.600000 11.000000 11.000000
8450 8.800000 11.000000 11.000000
8451 9.000000 11.000000 11.000000
8452 9.200000 11.000000 11.000000
8453 9.400000 11.000000 11.000000
8454 9.600000 11.000000 11.000000
8455 9.800000 11.000000 11.000000
8456 10.000000 11.000000 11.000000
8457 10.200000 11.000000 11.000000
8458 10.400000 11.000000 11.000000
8459 10.600000 11.000000 11.000000
8460 10.800000 11.000000 11.000000
8461 1.585579 10.856434 11.000000
8462 7.840845 10.851649 11.000000
8463 1.343635 10.850826 11.000000
8464 8.113457 10.847570 11.000000
8465 1.147996 10.845703 11.000000
8466 1.927324 10.843786 11.000000
8467 10.690543 10.843779 11.000000
8468 5.956522 10.843733 11.000000
8469 4.476981 10.843423 11.000000
8470 8.870720 10.843013 11.000000
8471 7.481402 10.840086 11.000000
8472 9.158457 10.838950 11.000000
8473 9.517580 10.838698 11.000000
8474 4.080134 10.837096 11.000000
8475 6.227573 10.835954 11.000000
8476 9.893829 10.834900 11.000000
8477 2.127928 10.833992 11.000000
8478 5.728974 10.833475 11.000000
8479 5.513974 10.832503 11.000000
8480 6.682668 10.832127 11.000000
8481 3.630229 10.831866 11.000000
8482 6.454899 10.829512 11.000000
8483 2.948860 10.827948 11.000000
8484 3.177289 10.827752 11.000000
8485 10.483646 10.823755 11.000000
8486 8.671365 10.823072 11.000000
8487 6.891501 10.821212 11.000000
8488 2.334334 10.820771 11.000000
8489 4.880796 10.820126 11.000000
8490 5.292965 10.819645 11.000000
8491 7.284550 10.819555 11.000000
8492 7.093573 10.819430 11.000000
8493 2.539164 10.816415 11.000000
8494 3.398257 10.816333 11.000000
8495 8.308855 10.814650 11.000000
8496 5.098372 10.809733 11.000000
8497 2.739668 10.809660 11.000000
8498 4.684501 10.806938 11.000000
8499 10.277107 10.806331 11.000000
8500 10.088270 10.802711 11.000000
8501 8.492493 10.798272 11.000000
8502 3.870503 10.797481 11.000000
8503 4.282185 10.790031 11.000000
8504 7.657707 10.784798 11.000000
8505 9.711769 10.780026 11.000000
8506 9.333427 10.775705 11.000000
8507 1.765370 10.774597 11.000000
8508 9.010270 10.752614 11.000000
8509 10.841190 10.745294 11.000000
8510 7.985209 10.734666 11.000000
8511 1.446150 10.728183 11.000000
8512 6.076255 10.697947 11.000000
8513 1.198329 10.674901 11.000000
8514 5.837955 10.658402 11.000000
8515 4.503737 10.657807 11.000000
8516 6.578509 10.657561 11.000000
8517 1.982111 10.653593 11.000000
8518 5.403179 10.650928 11.000000
8519 7.443252 10.648282 11.000000
8520 3.706462 10.648231 11.000000
8521 8.776136 10.645908 11.000000
8522 6.331214 10.644868 11.000000
8523 10.620489 10.644519 11.000000
8524 2.198825 10.644288 11.000000
8525 4.070920 10.643721 11.000000
8526 3.071022 10.643547 11.000000
8527 5.620583 10.637588 11.000000
8528 4.966785 10.637157 11.000000
8529 8.186384 10.630482 11.000000
8530 9.533951 10.629878 11.000000
8531 9.917573 10.629644 11.000000
8532 6.796879 10.627212 11.000000
8533 1.627899 10.626265 11.000000
8534 10.389520 10.623187 11.000000
8535 7.817497 10.622255 11.000000
8536 7.020128 10.622250 11.000000
8537 3.491431 10.620866 11.000000
8538 2.440101 10.618850 11.000000
8539 7.232311 10.611402 11.000000
8540 2.871883 10.610346 11.000000
8541 3.273173 10.603701 11.000000
8542 2.649861 10.594193 11.000000
8543 9.168760 10.592300 11.000000
8544 4.749551 10.590109 11.000000
8545 8.384869 10.583863 11.000000
8546 5.198170 10.582091 11.000000
8547 8.594174 10.580676 11.000000
8548 10.145408 10.578101 11.000000
8549 4.288709 10.557510 11.000000
8550 1.389071 10.551033 11.000000
8551 8.939659 10.549194 11.000000
8552 7.619100 10.544003 11.000000
8553 10.811277 10.530166 11.000000
8554 3.869230 10.529299 11.000000
8555 9.348942 10.525208 11.000000
8556 1.825627 10.521180 11.000000
8557 9.717702 10.517547 11.000000
8558 6.148566 10.513368 11.000000
8559 1.175598 10.495692 11.000000
8560 8.025655 10.493400 11.000000
8561 5.913183 10.481046 11.000000
8562 6.487622 10.469059 11.000000
8563 2.294948 10.453775 11.000000
8564 4.533188 10.449669 11.000000
8565 5.433546 10.441009 11.000000
8566 10.590239 10.431081 11.000000
8567 5.000189 10.427741 11.000000
8568 5.667287 10.427295 11.000000
8569 2.057279 10.425460 11.000000
8570 7.403672 10.416617 11.000000
8571 3.619178 10.413902 11.000000
8572 10.349468 10.412870 11.000000
8573 6.696734 10.412553 11.000000
8574 3.077608 10.411159 11.000000
8575 6.932404 10.410195 11.000000
8576 1.606489 10.408237 11.000000
8577 4.069762 10.397679 11.000000
8578 2.811131 10.392978 11.000000
8579 7.164076 10.392726 11.000000
8580 9.929950 10.386141 11.000000
8581 7.803918 10.382870 11.000000
8582 3.366890 10.382528 11.000000
8583 8.766670 10.376872 11.000000
8584 8.251795 10.372177 11.000000
8585 9.047052 10.368169 11.000000
8586 2.538254 10.365122 11.000000
8587 6.303927 10.361166 11.000000
8588 1.375417 10.359334 11.000000
8589 9.512472 10.357350 11.000000
8590 8.509507 10.354422 11.000000
8591 4.779598 10.341019 11.000000
8592 10.823197 10.330023 11.000000
8593 10.140738 10.315069 11.000000
8594 5.238401 10.314267 11.000000
8595 1.169579 10.311769 11.000000
8596 4.300690 10.307641 11.000000
8597 9.254919 10.284398 11.000000
8598 6.041221 10.280238 11.000000
8599 7.593338 10.278692 11.000000
8600 3.817607 10.269877 11.000000
8601 1.822901 10.268932 11.000000
8602 7.993373 10.243281 11.000000
8603 5.787960 10.239104 11.000000
8604 2.297732 10.236829 11.000000
8605 9.719802 10.236024 11.000000
8606 10.647446 10.230073 11.000000
8607 4.547277 10.207886 11.000000
8608 6.512501 10.195166 11.000000
8609 10.433087 10.193126 11.000000
8610 3.219482 10.187900 11.000000
8611 5.490537 10.186936 11.000000
8612 1.554888 10.183444 11.000000
8613 2.044901 10.182341 11.000000
8614 7.316014 10.176592 11.000000
8615 6.788313 10.176571 11.000000
8616 5.026082 10.169114 11.000000
8617 7.038270 10.160472 11.000000
8618 1.335182 10.159563 11.000000
8619 2.698713 10.158280 11.000000
8620 2.947305 10.155440 11.000000
8621 8.958247 10.151816 11.000000
8622 3.545434 10.150636 11.000000
8623 4.054032 10.133456 11.000000
8624 8.694698 10.125389 11.000000
8625 8.183945 10.117909 11.000000
8626 8.427605 10.117330 11.000000
8627 6.228561 10.115481 11.000000
8628 1.156561 10.115043 11.000000
8629 10.829759 10.109490 11.000000
8630 7.782593 10.084300 11.000000
8631 9.448752 10.081770 11.000000
8632 9.951547 10.080811 11.000000
8633 10.221101 10.079971 11.000000
8634 4.796499 10.059023 11.000000
8635 2.483680 10.050187 11.000000
8636 1.714694 10.036090 11.000000
8637 4.299259 10.033226 11.000000
8638 7.521363 10.020215 11.000000
8639 5.267926 10.015684 11.000000
8640 10.627742 10.013806 11.000000
8641 5.676075 10.010668 11.000000
8642 5.958853 10.010523 11.000000
8643 9.179160 10.008986 11.000000
8644 3.808900 9.987571 11.000000
8645 1.412667 9.978862 11.000000
8646 3.337082 9.967022 11.000000
8647 2.214584 9.965274 11.000000
8648 9.684886 9.956304 11.000000
8649 6.661805 9.943569 11.000000
8650 1.197675 9.942483 11.000000
8651 4.549448 9.937846 11.000000
8652 1.920257 9.937557 11.000000
8653 7.198891 9.927955 11.000000
8654 10.423360 9.924652 11.000000
8655 6.376604 9.918064 11.000000
8656 7.984262 9.917475 11.000000
8657 3.044834 9.910876 11.000000
8658 10.817862 9.897330 11.000000
8659 6.927032 9.884070 11.000000
8660 1.589910 9.872793 11.000000
8661 8.870695 9.869011 11.000000
8662 2.743949 9.868001 11.000000
8663 5.018339 9.858797 11.000000
8664 8.571726 9.855751 11.000000
8665 8.271698 9.845972 11.000000
8666 10.175062 9.831734 11.000000
8667 5.478470 9.824572 11.000000
8668 4.091414 9.820505 11.000000
8669 3.578643 9.816357 11.000000
8670 6.113205 9.799037 11.000000
8671 10.615993 9.779606 11.000000
8672 1.151533 9.770163 11.000000
8673 7.418327 9.768209 11.000000
8674 7.716052 9.765944 11.000000
8675 1.349275 9.764972 11.000000
8676 9.940565 9.763023 11.000000
8677 9.414778 9.756641 11.000000
8678 2.430400 9.753310 11.000000
8679 5.777646 9.739203 11.000000
8680 4.734281 9.732787 11.000000
8681 9.154201 9.723235 11.000000
8682 1.790686 9.714206 11.000000
8683 4.376155 9.707031 11.000000
8684 2.105615 9.697978 11.000000
8685 10.812986 9.688594 11.000000
8686 3.272788 9.676856 11.000000
8687 6.530465 9.675164 11.000000
8688 10.383569 9.671691 11.000000
8689 1.545060 9.661992 11.000000
8690 3.859176 9.659846 11.000000
8691 5.250848 9.655760 11.000000
8692 9.687197 9.654151 11.000000
8693 8.021267 9.618319 11.000000
8694 6.800930 9.611500 11.000000
8695 7.131375 9.608509 11.000000
8696 2.962236 9.607867 11.000000
8697 1.178032 9.591906 11.000000
8698 8.364222 9.570811 11.000000
8699 8.661001 9.559819 11.000000
8700 6.278080 9.556254 11.000000
8701 10.595920 9.554042 11.000000
8702 8.933282 9.543921 11.000000
8703 2.636861 9.540607 11.000000
8704 10.137575 9.539588 11.000000
8705 1.368743 9.533236 11.000000
8706 4.951947 9.516292 11.000000
8707 5.940818 9.508020 11.000000
8708 1.933344 9.506263 11.000000
8709 10.807131 9.490341 11.000000
8710 3.549994 9.483989 11.000000
8711 7.458840 9.480027 11.000000
8712 5.556395 9.472047 11.000000
8713 1.620570 9.469972 11.000000
8714 4.178440 9.456615 11.000000
8715 4.570593 9.453050 11.000000
8716 2.279296 9.441930 11.000000
8717 7.759620 9.439030 11.000000
8718 9.885079 9.428287 11.000000
8719 10.358420 9.417560 11.000000
8720 1.165508 9.405530 11.000000
8721 9.534487 9.402237 11.000000
8722 9.207601 9.367810 11.000000
8723 3.252492 9.345897 11.000000
8724 3.845995 9.342344 11.000000
8725 1.366265 9.337041 11.000000
8726 10.597345 9.333017 11.000000
8727 6.556806 9.324776 11.000000
8728 8.166688 9.323431 11.000000
8729 6.928992 9.321968 11.000000
8730 1.776434 9.310373 11.000000
8731 5.236198 9.305626 11.000000
8732 10.807857 9.298179 11.000000
8733 2.899735 9.283833 11.000000
8734 2.037963 9.252720 11.000000
8735 6.189665 9.244904 11.000000
8736 7.230994 9.243074 11.000000
8737 10.105430 9.236595 11.000000
8738 1.538859 9.230326 11.000000
8739 8.519528 9.227897 11.000000
8740 2.538041 9.215077 11.000000
8741 8.855423 9.212767 11.000000
8742 4.829191 9.209090 11.000000
8743 5.811607 9.208889 11.000000
8744 1.162216 9.208657 11.000000
8745 10.382396 9.186463 11.000000
8746 9.762349 9.159553 11.000000
8747 7.901655 9.155225 11.000000
8748 4.411649 9.154602 11.000000
8749 10.828011 9.111625 11.000000
8750 1.326365 9.107228 11.000000
8751 10.629615 9.106232 11.000000
8752 7.543934 9.092996 11.000000
8753 3.589251 9.092121 11.000000
8754 2.259645 9.089633 11.000000
8755 1.768408 9.085543 11.000000
8756 4.036156 9.082278 11.000000
8757 9.421479 9.078661 11.000000
8758 5.520563 9.054078 11.000000
8759 6.793023 9.030372 11.000000
8760 3.190428 9.012796 11.000000
8761 1.524492 9.003588 11.000000
8762 1.147858 8.980077 11.000000
8763 10.218849 8.968856 11.000000
8764 9.955810 8.965026 11.000000
8765 5.109833 8.963345 11.000000
8766 1.993539 8.958099 11.000000
8767 9.078197 8.956349 11.000000
8768 6.417402 8.955740 11.000000
8769 8.265817 8.955379 11.000000
8770 10.448823 8.950951 11.000000
8771 2.787175 8.942321 11.000000
8772 10.816064 8.923425 11.000000
8773 6.035453 8.899519 11.000000
8774 7.137566 8.892536 11.000000
8775 1.309478 8.879486 11.000000
8776 4.681020 8.869395 11.000000
8777 10.628493 8.856208 11.000000
8778 2.464261 8.855630 11.000000
8779 1.734309 8.846048 11.000000
8780 8.657642 8.840865 11.000000
8781 9.642991 8.837846 11.000000
8782 7.886265 8.809626 11.000000
8783 1.492542 8.781304 11.000000
8784 4.284038 8.765214 11.000000
8785 2.181343 8.750976 11.000000
8786 3.857942 8.749332 11.000000
8787 1.168445 8.739868 11.000000
8788 10.822902 8.719550 11.000000
8789 9.345449 8.715893 11.000000
8790 10.383253 8.714411 11.000000
8791 10.125825 8.713125 11.000000
8792 7.489206 8.711491 11.000000
8793 3.451816 8.710946 11.000000
8794 5.771652 8.694768 11.000000
8795 9.856260 8.674315 11.000000
8796 5.387252 8.673803 11.000000
8797 6.721963 8.668704 11.000000
8798 1.916147 8.663879 11.000000
8799 3.025850 8.657295 11.000000
8800 10.618829 8.646197 11.000000
8801 1.360516 8.628142 11.000000
8802 1.645231 8.614363 11.000000
8803 2.661667 8.581314 11.000000
8804 4.957075 8.578808 11.000000
8805 8.973955 8.568610 11.000000
8806 8.276894 8.566939 11.000000
8807 6.318537 8.549903 11.000000
8808 1.160945 8.525774 11.000000
8809 10.829667 8.518998 11.000000
8810 2.358918 8.505458 11.000000
8811 10.197464 8.474424 11.000000
8812 7.068369 8.473662 11.000000
8813 10.450281 8.469387 11.000000
8814 9.597655 8.457471 11.000000
8815 1.535851 8.440261 11.000000
8816 4.566473 8.432464 11.000000
8817 2.082257 8.430666 11.000000
8818 9.927857 8.428860 11.000000
8819 10.655782 8.427390 11.000000
8820 7.864185 8.417998 11.000000
8821 1.331463 8.415271 11.000000
8822 1.809470 8.407756 11.000000
8823 8.638853 8.384744 11.000000
8824 9.270183 8.379244 11.000000
8825 4.125234 8.359126 11.000000
8826 3.702113 8.337722 11.000000
8827 6.007599 8.337377 11.000000
8828 3.251973 8.334751 11.000000
8829 7.421276 8.302089 11.000000
8830 2.866320 8.300980 11.000000
8831 1.184816 8.300873 11.000000
8832 10.827200 8.300130 11.000000
8833 5.229601 8.263920 11.000000
8834 10.339830 8.263749 11.000000
8835 5.616712 8.248999 11.000000
8836 10.607802 8.228489 11.000000
8837 6.679562 8.227398 11.000000
8838 1.649778 8.222459 11.000000
8839 2.524655 8.219119 11.000000
8840 1.424239 8.217506 11.000000
8841 10.059420 8.197737 11.000000
8842 9.750880 8.174096 11.000000
8843 2.250083 8.172695 11.000000
8844 1.949437 8.162874 11.000000
8845 1.156028 8.121766 11.000000
8846 9.006434 8.118615 11.000000
8847 10.820721 8.100265 11.000000
8848 9.406187 8.093089 11.000000
8849 8.193898 8.092934 11.000000
8850 4.876113 8.072045 11.000000
8851 1.321279 8.067764 11.000000
8852 10.461923 8.066072 11.000000
8853 10.226781 8.018880 11.000000
8854 1.743901 8.015640 11.000000
8855 8.615857 8.010545 11.000000
8856 6.272516 8.006073 11.000000
8857 7.685390 7.986274 11.000000
8858 3.464565 7.985668 11.000000
8859 10.664091 7.983414 11.000000
8860 4.419736 7.977049 11.000000
8861 1.524219 7.968883 11.000000
8862 3.045401 7.965212 11.000000
8863 7.098605 7.956166 11.000000
8864 2.706070 7.955253 11.000000
8865 2.153123 7.923413 11.000000
8866 1.160112 7.914689 11.000000
8867 9.952893 7.910079 11.000000
8868 9.635335 7.890042 11.000000
8869 3.937512 7.889334 11.000000
8870 10.834204 7.869715 11.000000
8871 1.341178 7.844671 11.000000
8872 10.460456 7.844238 11.000000
8873 1.927825 7.842011 11.000000
8874 2.425541 7.832915 11.000000
8875 5.827398 7.828011 11.000000
8876 10.224060 7.790548 11.000000
8877 5.343633 7.786508 11.000000
8878 9.211640 7.767428 11.000000
8879 1.693092 7.756805 11.000000
8880 10.648878 7.746029 11.000000
8881 6.620804 7.718317 11.000000
8882 1.158000 7.711252 11.000000
8883 8.842648 7.702918 11.000000
8884 1.495609 7.695185 11.000000
8885 8.391165 7.646703 11.000000
8886 10.840060 7.646304 11.000000
8887 3.169627 7.637278 11.000000
8888 9.832793 7.633170 11.000000
8889 9.505374 7.632318 11.000000
8890 4.830532 7.624928 11.000000
8891 2.755121 7.624010 11.000000
8892 2.162147 7.619213 11.000000
8893 7.953021 7.617620 11.000000
8894 1.318108 7.611805 11.000000
8895 10.414782 7.611381 11.000000
8896 10.104359 7.608799 11.000000
8897 7.442915 7.605168 11.000000
8898 3.563709 7.596702 11.000000
8899 1.894829 7.567283 11.000000
8900 10.662209 7.534913 11.000000
8901 4.322026 7.529242 11.000000
8902 1.633143 7.497555 11.000000
8903 1.167519 7.490963 11.000000
8904 2.424915 7.479020 11.000000
8905 6.175288 7.473796 11.000000
8906 6.949956 7.454455 11.000000
8907 1.404737 7.432941 11.000000
8908 10.845498 7.413459 11.000000
8909 10.256714 7.400595 11.000000
8910 10.498836 7.394409 11.000000
8911 9.008061 7.375877 11.000000
8912 9.340508 7.365901 11.000000
8913 3.893710 7.365213 11.000000
8914 5.716599 7.360764 11.000000
8915 9.977301 7.353836 11.000000
8916 9.681664 7.351715 11.000000
8917 5.224098 7.350430 11.000000
8918 3.012494 7.337797 11.000000
8919 2.114088 7.320464 11.000000
8920 1.845817 7.319526 11.000000
8921 1.187371 7.306997 11.000000
8922 8.613223 7.300134 11.000000
8923 10.684837 7.296087 11.000000
8924 1.601817 7.257052 11.000000
8925 2.673582 7.248668 11.000000
8926 1.379529 7.226153 11.000000
8927 3.394693 7.215026 11.000000
8928 4.667631 7.190828 11.000000
8929 10.429707 7.188960 11.000000
8930 8.187113 7.184651 11.000000
8931 6.511433 7.182282 11.000000
8932 7.297324 7.169308 11.000000
8933 10.840001 7.163422 11.000000
8934 7.744979 7.157760 11.000000
8935 10.168372 7.150401 11.000000
8936 2.368633 7.130901 11.000000
8937 1.169235 7.109569 11.000000
8938 10.629348 7.093190 11.000000
8939 9.858257 7.083442 11.000000
8940 1.838883 7.077439 11.000000
8941 9.546424 7.059512 11.000000
8942 9.194065 7.032826 11.000000
8943 1.587375 7.032735 11.000000
8944 1.368045 7.031696 11.000000
8945 2.106526 7.019833 11.000000
8946 4.245654 7.007576 11.000000
8947 2.981691 6.994955 11.000000
8948 8.820253 6.973796 11.000000
8949 10.375607 6.968855 11.000000
8950 5.029987 6.959759 11.000000
8951 10.829582 6.945504 11.000000
8952 3.753704 6.942435 11.000000
8953 5.535967 6.932281 11.000000
8954 6.046926 6.927251 11.000000
8955 6.918230 6.925971 11.000000
8956 10.074263 6.912507 11.000000
8957 1.189214 6.907258 11.000000
8958 10.630235 6.903991 11.000000
8959 2.605363 6.894347 11.000000
8960 8.406190 6.841421 11.000000
8961 1.416059 6.830226 11.000000
8962 1.678841 6.823157 11.000000
8963 1.937559 6.813238 11.000000
8964 3.316127 6.804490 11.000000
8965 9.773512 6.785315 11.000000
8966 2.287310 6.772526 11.000000
8967 9.438668 6.754510 11.000000
8968 10.532597 6.752712 11.000000
8969 10.294335 6.747133 11.000000
8970 7.432739 6.739766 11.000000
8971 10.802298 6.734606 11.000000
8972 1.169501 6.723699 11.000000
8973 7.927737 6.681993 11.000000
8974 6.506508 6.678906 11.000000
8975 9.085846 6.673025 11.000000
8976 4.635535 6.660794 11.000000
8977 2.882246 6.654639 11.000000
8978 10.069010 6.652647 11.000000
8979 1.333795 6.642442 11.000000
8980 1.551705 6.616645 11.000000
8981 10.634305 6.588469 11.000000
8982 2.058598 6.578846 11.000000
8983 1.792429 6.565908 11.000000
8984 4.126810 6.557694 11.000000
8985 5.178287 6.553715 11.000000
8986 8.725824 6.553213 11.000000
8987 2.535632 6.543393 11.000000
8988 10.397666 6.535049 11.000000
8989 3.672343 6.523167 11.000000
8990 10.833282 6.522390 11.000000
8991 1.169256 6.506257 11.000000
8992 5.686182 6.497387 11.000000
8993 9.882013 6.485082 11.000000
8994 9.614740 6.474100 11.000000
8995 7.011237 6.469002 11.000000
8996 3.191036 6.443134 11.000000
8997 1.384435 6.434344 11.000000
8998 10.189096 6.418921 11.000000
8999 2.247979 6.404586 11.000000
9000 9.333802 6.403205 11.000000
9001 10.635144 6.394743 11.000000
9002 8.325128 6.391811 11.000000
9003 6.142571 6.384555 11.000000
9004 1.626327 6.376305 11.000000
9005 1.912093 6.311460 11.000000
9006 10.829623 6.310408 11.000000
9007 1.186606 6.308364 11.000000
9008 7.510647 6.301003 11.000000
9009 10.433687 6.300679 11.000000
9010 2.816224 6.288771 11.000000
9011 9.038269 6.272413 11.000000
9012 9.988009 6.236904 11.000000
9013 1.405923 6.230218 11.000000
9014 4.850734 6.199392 11.000000
9015 4.417694 6.191950 11.000000
9016 2.500412 6.187131 11.000000
9017 6.625208 6.186155 11.000000
9018 3.500461 6.184769 11.000000
9019 9.712259 6.182723 11.000000
9020 10.644226 6.177366 11.000000
9021 1.651204 6.154405 11.000000
9022 10.237807 6.146469 11.000000
9023 7.938800 6.146197 11.000000
9024 2.151298 6.129975 11.000000
9025 8.704229 6.128449 11.000000
9026 1.190096 6.115102 11.000000
9027 5.319217 6.099582 11.000000
9028 10.830625 6.098042 11.000000
9029 9.420830 6.087897 11.000000
9030 3.946188 6.069633 11.000000
9031 10.454563 6.047038 11.000000
9032 3.112057 6.040544 11.000000
9033 1.405980 6.028230 11.000000
9034 1.877909 6.027091 11.000000
9035 5.787614 6.007561 11.000000
9036 7.112595 5.990327 11.000000
9037 9.995861 5.976711 11.000000
9038 10.653321 5.947763 11.000000
9039 1.187112 5.922145 11.000000
9040 9.109229 5.920650 11.000000
9041 1.621697 5.914207 11.000000
9042 8.359991 5.913597 11.000000
9043 2.384297 5.910397 11.000000
9044 2.773529 5.903199 11.000000
9045 10.834662 5.888280 11.000000
9046 9.733220 5.883568 11.000000
9047 10.247620 5.881330 11.000000
9048 6.259269 5.874347 11.000000
9049 2.093516 5.824126 11.000000
9050 1.388063 5.815148 11.000000
9051 3.502760 5.807103 11.000000
9052 10.470065 5.797217 11.000000
9053 7.565886 5.794447 11.000000
9054 1.828637 5.748497 11.000000
9055 9.454948 5.745520 11.000000
9056 4.382988 5.745051 11.000000
9057 4.893361 5.734254 11.000000
9058 1.178970 5.725446 11.000000
9059 8.783382 5.724407 11.000000
9060 10.673876 5.716155 11.000000
9061 10.026245 5.705538 11.000000
9062 6.736651 5.686853 11.000000
9063 10.849844 5.680346 11.000000
9064 1.586958 5.669046 11.000000
9065 2.564220 5.659905 11.000000
9066 3.126156 5.650994 11.000000
9067 5.392541 5.640484 11.000000
9068 8.003339 5.625332 11.000000
9069 10.290774 5.617090 11.000000
9070 1.365724 5.595753 11.000000
9071 3.879377 5.594164 11.000000
9072 9.771701 5.584277 11.000000
9073 2.280672 5.572589 11.000000
9074 10.535612 5.554480 11.000000
9075 9.168002 5.552851 11.000000
9076 5.884372 5.529285 11.000000
9077 1.168288 5.526260 11.000000
9078 2.010695 5.524462 11.000000
9079 10.787604 5.497214 11.000000
9080 7.196325 5.476657 11.000000
9081 2.824671 5.476198 11.000000
9082 1.763954 5.472541 11.000000
9083 8.449447 5.465165 11.000000
9084 10.072646 5.436549 11.000000
9085 1.533550 5.424114 11.000000
9086 9.509862 5.404508 11.000000
9087 3.487821 5.377322 11.000000
9088 6.363145 5.376390 11.000000
9089 10.338211 5.371580 11.000000
9090 1.324924 5.369215 11.000000
9091 10.596131 5.360498 11.000000
9092 8.875412 5.323831 11.000000
9093 1.154207 5.319672 11.000000
9094 2.520379 5.313838 11.000000
9095 10.824913 5.303633 11.000000
9096 4.614327 5.295851 11.000000
9097 9.830176 5.295162 11.000000
9098 4.163157 5.288033 11.000000
9099 7.644681 5.271339 11.000000
9100 2.207942 5.267918 11.000000
9101 5.066487 5.243500 11.000000
9102 1.936652 5.241208 11.000000
9103 3.089973 5.226188 11.000000
9104 1.675635 5.217844 11.000000
9105 1.428958 5.193137 11.000000
9106 9.244122 5.183875 11.000000
9107 6.821517 5.173877 11.000000
9108 10.132855 5.168491 11.000000
9109 5.530202 5.166363 11.000000
9110 10.650585 5.163217 11.000000
9111 10.424152 5.158070 11.000000
9112 1.193713 5.141735 11.000000
9113 8.100943 5.139250 11.000000
9114 10.829301 5.089568 11.000000
9115 9.578354 5.072517 11.000000
9116 2.776551 5.063435 11.000000
9117 8.583956 5.056257 11.000000
9118 5.997785 5.041574 11.000000
9119 9.870450 5.021135 11.000000
9120 3.783002 5.011488 11.000000
9121 2.419330 5.007577 11.000000
9122 1.346269 4.997543 11.000000
9123 1.584467 4.995455 11.000000
9124 1.850210 4.992315 11.000000
9125 3.361285 4.972758 11.000000
9126 2.122067 4.971665 11.000000
9127 10.309732 4.964833 11.000000
9128 10.599018 4.961309 11.000000
9129 7.277681 4.955514 11.000000
9130 1.152720 4.940115 11.000000
9131 8.998595 4.923856 11.000000
9132 10.802061 4.899552 11.000000
9133 10.060237 4.867862 11.000000
9134 6.432744 4.864458 11.000000
9135 4.275736 4.852290 11.000000
9136 9.376465 4.828312 11.000000
9137 4.739958 4.815686 11.000000
9138 1.433891 4.810087 11.000000
9139 10.474374 4.796582 11.000000
9140 1.712731 4.784280 11.000000
9141 1.229423 4.774122 11.000000
9142 3.036663 4.768226 11.000000
9143 5.200078 4.751008 11.000000
9144 9.731137 4.749962 11.000000
9145 7.735863 4.749721 11.000000
9146 8.282347 4.744038 11.000000
9147 2.618675 4.743440 11.000000
9148 1.984910 4.719138 11.000000
9149 10.844637 4.712283 11.000000
9150 10.660765 4.699497 11.000000
9151 2.299604 4.693986 11.000000
9152 10.263855 4.692095 11.000000
9153 5.640878 4.686709 11.000000
9154 6.874682 4.665258 11.000000
9155 8.723570 4.653545 11.000000
9156 1.499045 4.636564 11.000000
9157 1.137887 4.615145 11.000000
9158 3.472820 4.605080 11.000000
9159 10.016111 4.602153 11.000000
9160 9.144781 4.555624 11.000000
9161 1.309616 4.552668 11.000000
9162 1.708421 4.548550 11.000000
9163 10.472760 4.547169 11.000000
9164 3.913952 4.525471 11.000000
9165 6.031085 4.524487 11.000000
9166 10.824548 4.516803 11.000000
9167 9.499266 4.508550 11.000000
9168 2.809209 4.492801 11.000000
9169 1.913516 4.466061 11.000000
9170 10.647367 4.448415 11.000000
9171 7.313103 4.443043 11.000000
9172 2.170541 4.438248 11.000000
9173 10.260873 4.431275 11.000000
9174 9.818965 4.429428 11.000000
9175 1.481805 4.406538 11.000000
9176 1.146789 4.395817 11.000000
9177 4.423572 4.394841 11.000000
9178 8.045793 4.383312 11.000000
9179 2.479225 4.378659 11.000000
9180 6.449556 4.366349 11.000000
9181 4.928962 4.339735 11.000000
9182 3.165858 4.336272 11.000000
9183 10.839392 4.310365 11.000000
9184 8.469382 4.305783 11.000000
9185 1.300459 4.302596 11.000000
9186 8.898729 4.298547 11.000000
9187 10.066566 4.295239 11.000000
9188 1.672912 4.293782 11.000000
9189 10.452793 4.279810 11.000000
9190 5.446330 4.260364 11.000000
9191 10.660414 4.230765 11.000000
9192 1.921986 4.215236 11.000000
9193 9.656273 4.211818 11.000000
9194 9.316300 4.200906 11.000000
9195 7.678463 4.174343 11.000000
9196 3.575681 4.169913 11.000000
9197 6.882368 4.165997 11.000000
9198 2.809204 4.163294 11.000000
9199 1.457458 4.157492 11.000000
9200 1.168945 4.156693 11.000000
9201 2.201420 4.151943 11.000000
9202 10.270592 4.128576 11.000000
9203 10.816338 4.094873 11.000000
9204 9.934070 4.080358 11.000000
9205 5.953201 4.070526 11.000000
9206 1.687883 4.053071 11.000000
9207 4.061053 4.048830 11.000000
9208 10.571960 4.043936 11.000000
9209 2.480778 4.026914 11.000000
9210 1.315625 4.010314 11.000000
9211 9.029013 3.983932 11.000000
9212 1.949719 3.958651 11.000000
9213 8.620713 3.947572 11.000000
9214 9.607829 3.940564 11.000000
9215 4.591095 3.940327 11.000000
9216 1.157950 3.930627 11.000000
9217 10.390850 3.915032 11.000000
9218 3.148796 3.914609 11.000000
9219 8.142637 3.911152 11.000000
9220 10.805479 3.911020 11.000000
9221 6.410206 3.906346 11.000000
9222 1.497129 3.903237 11.000000
9223 7.275776 3.891790 11.000000
9224 10.144081 3.889437 11.000000
9225 5.075557 3.877447 11.000000
9226 2.222436 3.837593 11.000000
9227 2.772266 3.833033 11.000000
9228 10.619090 3.820138 11.000000
9229 9.314097 3.806744 11.000000
9230 1.711534 3.799336 11.000000
9231 5.575938 3.789024 11.000000
9232 9.875223 3.783710 11.000000
9233 3.518517 3.771191 11.000000
9234 1.328633 3.760685 11.000000
9235 1.159779 3.727677 11.000000
9236 10.821061 3.704138 11.000000
9237 10.390238 3.696635 11.000000
9238 1.941056 3.691905 11.000000
9239 7.672458 3.683082 11.000000
9240 6.860036 3.678759 11.000000
9241 2.500747 3.652265 11.000000
9242 1.518497 3.648190 11.000000
9243 8.929692 3.642731 11.000000
9244 3.903852 3.632520 11.000000
9245 10.141276 3.624680 11.000000
9246 9.593649 3.611503 11.000000
9247 10.614399 3.603436 11.000000
9248 4.322480 3.587701 11.000000
9249 8.508414 3.572035 11.000000
9250 6.013461 3.556583 11.000000
9251 2.174190 3.544021 11.000000
9252 1.168753 3.539627 11.000000
9253 2.906800 3.536961 11.000000
9254 1.721927 3.526197 11.000000
9255 1.345605 3.519552 11.000000
9256 10.816383 3.498467 11.000000
9257 6.441609 3.492355 11.000000
9258 9.888970 3.485935 11.000000
9259 5.240433 3.475153 11.000000
9260 4.767196 3.471440 11.000000
9261 8.065592 3.470702 11.000000
9262 10.375915 3.468740 11.000000
9263 9.259881 3.458577 11.000000
9264 3.239854 3.451768 11.000000
9265 7.228225 3.404535 11.000000
9266 1.935053 3.400190 11.000000
9267 10.602575 3.394519 11.000000
9268 1.541474 3.384474 11.000000
9269 2.354064 3.345482 11.000000
9270 5.634623 3.342848 11.000000
9271 10.139349 3.341242 11.000000
9272 1.165017 3.340911 11.000000
9273 2.661460 3.321637 11.000000
9274 9.614076 3.310235 11.000000
9275 3.615625 3.298260 11.000000
9276 10.815377 3.298242 11.000000
9277 1.342829 3.294916 11.000000
9278 8.881417 3.288650 11.000000
9279 7.649874 3.268057 11.000000
9280 6.760689 3.252544 11.000000
9281 10.384139 3.232440 11.000000
9282 1.747164 3.231947 11.000000
9283 4.012112 3.216717 11.000000
9284 8.432380 3.199597 11.000000
9285 2.081470 3.197600 11.000000
9286 10.616051 3.188125 11.000000
9287 9.898451 3.180554 11.000000
9288 4.398289 3.171314 11.000000
9289 5.087832 3.150572 11.000000
9290 6.276234 3.149988 11.000000
9291 9.321629 3.145183 11.000000
9292 1.532299 3.137380 11.000000
9293 1.154671 3.133454 11.000000
9294 2.994612 3.108414 11.000000
9295 10.831160 3.094154 11.000000
9296 1.327836 3.084766 11.000000
9297 8.036480 3.078482 11.000000
9298 5.909932 3.070033 11.000000
9299 10.171311 3.062519 11.000000
9300 2.360717 3.050983 11.000000
9301 1.870727 3.028041 11.000000
9302 4.737171 3.013297 11.000000
9303 7.003243 3.001589 11.000000
9304 10.426506 3.000807 11.000000
9305 3.353569 2.997531 11.000000
9306 2.643023 2.990006 11.000000
9307 5.459102 2.989272 11.000000
9308 10.653407 2.987268 11.000000
9309 9.621005 2.986110 11.000000
9310 7.353624 2.985502 11.000000
9311 9.078866 2.968974 11.000000
9312 1.629744 2.944799 11.000000
9313 8.709987 2.930392 11.000000
9314 1.174060 2.916783 11.000000
9315 6.554147 2.906010 11.000000
9316 1.394625 2.898919 11.000000
9317 3.714969 2.896340 11.000000
9318 9.909510 2.894342 11.000000
9319 2.131633 2.883677 11.000000
9320 10.833970 2.872549 11.000000
9321 7.716119 2.869672 11.000000
9322 4.078619 2.840685 11.000000
9323 8.354142 2.827042 11.000000
9324 10.154479 2.804609 11.000000
9325 10.614120 2.793007 11.000000
9326 5.083205 2.788857 11.000000
9327 10.380513 2.788556 11.000000
9328 4.417119 2.772393 11.000000
9329 1.866034 2.771111 11.000000
9330 9.381910 2.753261 11.000000
9331 6.185331 2.744314 11.000000
9332 5.755051 2.733528 11.000000
9333 2.812032 2.728674 11.000000
9334 1.191609 2.723337 11.000000
9335 1.624751 2.718197 11.000000
9336 1.406268 2.714756 11.000000
9337 2.413802 2.707227 11.000000
9338 3.156137 2.696804 11.000000
9339 8.044333 2.694337 11.000000
9340 6.824615 2.692071 11.000000
9341 10.786390 2.668299 11.000000
9342 9.713534 2.665414 11.000000
9343 8.997674 2.655915 11.000000
9344 4.751342 2.627635 11.000000
9345 7.143595 2.621597 11.000000
9346 7.448638 2.617387 11.000000
9347 5.379484 2.610512 11.000000
9348 2.092142 2.599060 11.000000
9349 10.530174 2.594476 11.000000
9350 8.649573 2.590873 11.000000
9351 3.472800 2.590487 11.000000
9352 9.994924 2.583883 11.000000
9353 10.269506 2.551374 11.000000
9354 3.808718 2.538418 11.000000
9355 6.535329 2.526355 11.000000
9356 1.332421 2.521522 11.000000
9357 1.152985 2.521038 11.000000
9358 1.807709 2.513304 11.000000
9359 7.768528 2.500645 11.000000
9360 1.551416 2.498542 11.000000
9361 10.839498 2.493090 11.000000
9362 4.133380 2.483986 11.000000
9363 8.343670 2.471790 11.000000
9364 5.962762 2.468243 11.000000
9365 2.623900 2.447039 11.000000
9366 10.648038 2.437960 11.000000
9367 5.050116 2.436051 11.000000
9368 9.242265 2.435839 11.000000
9369 4.445867 2.428163 11.000000
9370 9.556762 2.417790 11.000000
9371 2.977577 2.416075 11.000000
9372 5.601563 2.392340 11.000000
9373 2.271335 2.390826 11.000000
9374 6.292086 2.371281 11.000000
9375 6.879420 2.364864 11.000000
9376 10.411709 2.361540 11.000000
9377 8.903864 2.356866 11.000000
9378 8.056408 2.350517 11.000000
9379 9.858125 2.341699 11.000000
9380 1.191867 2.322782 11.000000
9381 1.963950 2.317388 11.000000
9382 10.132084 2.315150 11.000000
9383 1.408241 2.309228 11.000000
9384 7.508777 2.302824 11.000000
9385 10.803428 2.292747 11.000000
9386 1.662987 2.292068 11.000000
9387 7.223904 2.286618 11.000000
9388 3.298882 2.285627 11.000000
9389 4.739804 2.282781 11.000000
9390 8.611222 2.264236 11.000000
9391 3.607414 2.245537 11.000000
9392 5.294925 2.244598 11.000000
9393 3.910877 2.208383 11.000000
9394 10.575552 2.207229 11.000000
9395 6.624355 2.183705 11.000000
9396 5.788843 2.180530 11.000000
9397 2.457976 2.171801 11.000000
9398 7.788692 2.164223 11.000000
9399 2.766921 2.158198 11.000000
9400 4.210923 2.155066 11.000000
9401 8.317929 2.150304 11.000000
9402 9.422960 2.149342 11.000000
9403 6.065547 2.147513 11.000000
9404 9.126816 2.144024 11.000000
9405 10.303153 2.134018 11.000000
9406 1.158412 2.133252 11.000000
9407 4.482861 2.115839 11.000000
9408 10.826113 2.115655 11.000000
9409 3.046110 2.115238 11.000000
9410 4.969504 2.114011 11.000000
9411 1.340444 2.113491 11.000000
9412 9.706381 2.102336 11.000000
9413 2.121698 2.091888 11.000000
9414 6.987877 2.091686 11.000000
9415 1.812312 2.090829 11.000000
9416 1.550509 2.085092 11.000000
9417 6.342834 2.058419 11.000000
9418 8.862726 2.057378 11.000000
9419 8.042413 2.051020 11.000000
9420 10.008151 2.049309 11.000000
9421 5.516675 2.043518 11.000000
9422 10.654090 2.026668 11.000000
9423 7.518893 2.025272 11.000000
9424 8.562011 1.989322 11.000000
9425 3.489595 1.967468 11.000000
9426 7.268559 1.962517 11.000000
9427 10.449072 1.958623 11.000000
9428 5.185960 1.949153 11.000000
9429 4.688889 1.941424 11.000000
9430 1.180688 1.936307 11.000000
9431 2.347904 1.934085 11.000000
9432 3.231157 1.933045 11.000000
9433 3.770715 1.932265 11.000000
9434 2.640844 1.915459 11.000000
9435 4.054956 1.914956 11.000000
9436 10.827690 1.908333 11.000000
9437 6.803087 1.907936 11.000000
9438 5.809448 1.907642 11.000000
9439 9.260631 1.906199 11.000000
9440 1.386810 1.891663 11.000000
9441 10.217025 1.874501 11.000000
9442 6.064973 1.874290 11.000000
9443 6.555508 1.870529 11.000000
9444 9.526850 1.869237 11.000000
9445 1.624612 1.869002 11.000000
9446 1.896996 1.866948 11.000000
9447 7.755869 1.866709 11.000000
9448 8.279531 1.860680 11.000000
9449 2.919841 1.857840 11.000000
9450 4.378045 1.856086 11.000000
9451 9.786875 1.842183 11.000000
9452 9.048106 1.819497 11.000000
9453 8.783125 1.819405 11.000000
9454 4.922556 1.818863 11.000000
9455 8.006150 1.814954 11.000000
9456 10.621228 1.807337 11.000000
9457 7.069119 1.802376 11.000000
9458 5.365662 1.800368 11.000000
9459 2.135641 1.787424 11.000000
9460 6.302536 1.775656 11.000000
9461 7.481480 1.754749 11.000000
9462 1.177559 1.748206 11.000000
9463 5.606003 1.747533 11.000000
9464 8.507602 1.746103 11.000000
9465 10.011351 1.731338 11.000000
9466 10.828913 1.717278 11.000000
9467 2.439802 1.711938 11.000000
9468 10.404491 1.694973 11.000000
9469 4.153415 1.689014 11.000000
9470 1.379769 1.687354 11.000000
9471 3.625827 1.686291 11.000000
9472 3.380917 1.681158 11.000000
9473 4.631947 1.669267 11.000000
9474 9.351357 1.669238 11.000000
9475 3.129490 1.668798 11.000000
9476 1.638784 1.666139 11.000000
9477 2.688969 1.661452 11.000000
9478 3.890488 1.650998 11.000000
9479 7.255071 1.642889 11.000000
9480 5.139760 1.637932 11.000000
9481 1.857264 1.634280 11.000000
9482 6.715593 1.633885 11.000000
9483 6.929725 1.627812 11.000000
9484 5.840617 1.626044 11.000000
9485 6.063082 1.624628 11.000000
9486 9.593956 1.613998 11.000000
9487 8.147876 1.613751 11.000000
9488 7.673868 1.604887 11.000000
9489 10.642399 1.604056 11.000000
9490 7.896795 1.601674 11.000000
9491 8.710431 1.600299 11.000000
9492 6.487026 1.596913 11.000000
9493 8.937535 1.589110 11.000000
9494 4.876676 1.588821 11.000000
9495 9.814363 1.586717 11.000000
9496 4.380172 1.586047 11.000000
9497 2.897166 1.583470 11.000000
9498 10.193364 1.583155 11.000000
9499 9.164791 1.575452 11.000000
9500 8.357886 1.574161 11.000000
9501 2.268298 1.562690 11.000000
9502 1.180163 1.557734 11.000000
9503 2.046238 1.555736 11.000000
9504 5.391432 1.554335 11.000000
9505 10.824763 1.519770 11.000000
9506 6.254714 1.519413 11.000000
9507 1.487660 1.514728 11.000000
9508 5.616967 1.494548 11.000000
9509 7.445545 1.487699 11.000000
9510 8.560318 1.474096 11.000000
9511 2.503695 1.469136 11.000000
9512 10.489495 1.466342 11.000000
9513 4.113620 1.462317 11.000000
9514 7.094500 1.460827 11.000000
9515 3.698195 1.442337 11.000000
9516 9.992201 1.440199 11.000000
9517 3.265172 1.433953 11.000000
9518 3.480873 1.430583 11.000000
9519 9.402000 1.427782 11.000000
9520 1.719433 1.422768 11.000000
9521 1.322571 1.417907 11.000000
9522 4.554774 1.411298 11.000000
9523 3.064100 1.404534 11.000000
9524 2.682857 1.401402 11.000000
9525 10.331411 1.398115 11.000000
9526 6.656581 1.398032 11.000000
9527 4.770687 1.396629 11.000000
9528 5.020343 1.396404 11.000000
9529 5.997607 1.395670 11.000000
9530 8.012958 1.391969 11.000000
9531 3.906267 1.386061 11.000000
9532 6.878200 1.385822 11.000000
9533 5.245340 1.382998 11.000000
9534 8.810152 1.380921 11.000000
9535 9.594745 1.379982 11.000000
9536 7.805924 1.376460 11.000000
9537 8.210274 1.376246 11.000000
9538 9.783269 1.369934 11.000000
9539 5.779085 1.368676 11.000000
9540 9.022115 1.368442 11.000000
9541 1.909038 1.367234 11.000000
9542 7.606245 1.366923 11.000000
9543 6.436688 1.362405 11.000000
9544 7.286209 1.361675 11.000000
9545 4.315261 1.361495 11.000000
9546 10.655768 1.357327 11.000000
9547 9.225675 1.352436 11.000000
9548 1.152532 1.348757 11.000000
9549 2.867654 1.347366 11.000000
9550 2.338675 1.345237 11.000000
9551 2.128172 1.344377 11.000000
9552 10.839247 1.332252 11.000000
9553 10.146253 1.332102 11.000000
9554 8.404003 1.330755 11.000000
9555 6.205407 1.322375 11.000000
9556 5.485076 1.312812 11.000000
9557 1.536259 1.312451 11.000000
9558 8.631531 1.289254 11.000000
9559 7.089859 1.218459 11.000000
9560 4.099648 1.218038 11.000000
9561 10.472613 1.207852 11.000000
9562 2.520839 1.207298 11.000000
9563 3.713638 1.207271 11.000000
9564 3.327631 1.206353 11.000000
9565 7.475857 1.202832 11.000000
9566 3.521428 1.200176 11.000000
9567 9.904861 1.199739 11.000000
9568 3.133114 1.196745 11.000000
9569 1.337040 1.194272 11.000000
9570 4.491989 1.193474 11.000000
9571 4.905067 1.193390 11.000000
9572 9.501312 1.190896 11.000000
9573 1.727876 1.190449 11.000000
9574 6.719164 1.190419 11.000000
9575 4.693164 1.190050 11.000000
9576 5.121059 1.185543 11.000000
9577 5.647118 1.181490 11.000000
9578 8.914978 1.181489 11.000000
9579 5.873532 1.180883 11.000000
9580 8.086522 1.180690 11.000000
9581 7.891488 1.180470 11.000000
9582 6.524918 1.179293 11.000000
9583 9.320620 1.178745 11.000000
9584 1.921807 1.175082 11.000000
9585 2.716284 1.174793 11.000000
9586 6.910799 1.174571 11.000000
9587 3.907223 1.173013 11.000000
9588 5.341935 1.171361 11.000000
9589 6.079436 1.170449 11.000000
9590 2.935420 1.169964 11.000000
9591 7.686752 1.169220 11.000000
9592 10.291712 1.168695 11.000000
9593 9.700967 1.167353 11.000000
9594 2.113741 1.165875 11.000000
9595 9.113787 1.164644 11.000000
9596 4.288618 1.163798 11.000000
9597 8.282587 1.163778 11.000000
9598 10.081657 1.163363 11.000000
9599 6.314097 1.162720 11.000000
9600 2.314347 1.161484 11.000000
9601 7.282216 1.160464 11.000000
9602 10.649280 1.160398 11.000000
9603 1.159227 1.156000 11.000000
9604 10.834972 1.153515 11.000000
9605 8.496079 1.149955 11.000000
9606 8.728122 1.149052 11.000000
9607 1.526650 1.139648 11.000000
9608 1.142612 11.000000 4.786638
9609 1.144979 11.000000 6.934282
9610 1.145137 11.000000 4.484454
9611 1.146756 11.000000 10.645377
9612 1.150529 11.000000 10.080430
9613 1.153040 11.000000 9.691127
9614 1.153426 11.000000 1.913143
9615 1.154086 11.000000 10.842849
9616 1.155304 11.000000 5.491142
9617 1.155757 11.000000 5.116683
9618 1.157070 11.000000 2.881798
9619 1.159834 11.000000 2.494595
9620 1.163741 11.000000 10.273189
9621 1.164946 11.000000 8.106238
9622 1.166144 11.000000 2.298809
9623 1.166563 11.000000 1.156932
9624 1.166575 11.000000 4.084010
9625 1.166790 11.000000 4.281412
9626 1.166926 11.000000 8.330747
9627 1.168060 11.000000 3.675710
9628 1.168434 11.000000 1.528736
9629 1.168714 11.000000 6.101306
9630 1.169295 11.000000 3.878562
9631 1.169301 11.000000 9.495329
9632 1.170272 11.000000 3.277616
9633 1.170916 11.000000 1.341338
9634 1.171178 11.000000 7.898198
9635 1.172002 11.000000 6.725521
9636 1.172727 11.000000 9.303125
9637 1.174183 11.000000 10.459415
9638 1.174523 11.000000 6.521294
9639 1.174885 11.000000 7.691755
9640 1.175334 11.000000 6.314449
9641 1.177711 11.000000 3.086082
9642 1.177740 11.000000 7.489603
9643 1.178790 11.000000 3.478544
9644 1.180214 11.000000 7.303677
9645 1.180669 11.000000 9.108773
9646 1.183345 11.000000 8.720393
9647 1.183671 11.000000 1.718447
9648 1.183905 11.000000 5.884956
9649 1.184004 11.000000 5.692075
9650 1.187723 11.000000 8.914621
9651 1.188212 11.000000 9.882073
9652 1.192722 11.000000 2.696931
9653 1.193155 11.000000 2.110870
9654 1.194077 11.000000 8.520303
9655 1.208226 11.000000 7.123142
9656 1.210509 11.000000 5.306089
9657 1.234635 11.000000 4.943626
9658 1.240582 11.000000 4.627672
9659 1.313093 11.000000 10.665069
9660 1.317776 11.000000 6.909869
9661 1.321135 11.000000 10.066976
9662 1.325027 11.000000 8.232630
9663 1.329214 11.000000 9.687097
9664 1.333210 11.000000 1.919226
9665 1.333694 11.000000 2.920001
9666 1.334091 11.000000 4.415752
9667 1.338824 11.000000 2.517824
9668 1.341338 11.000000 10.268719
9669 1.342666 11.000000 5.516803
9670 1.346367 11.000000 10.847321
9671 1.350411 11.000000 3.987599
9672 1.351498 11.000000 2.314630
9673 1.354206 11.000000 5.990967
9674 1.356885 11.000000 9.481713
9675 1.357976 11.000000 1.526263
9676 1.358329 11.000000 1.327474
9677 1.358472 11.000000 8.002024
9678 1.358542 11.000000 3.761223
9679 1.359619 11.000000 6.216863
9680 1.360130 11.000000 1.150424
9681 1.360523 11.000000 4.201434
9682 1.360929 11.000000 3.334824
9683 1.363398 11.000000 7.781379
9684 1.363443 11.000000 6.673394
9685 1.363726 11.000000 7.549844
9686 1.366713 11.000000 5.127232
9687 1.366902 11.000000 9.277540
9688 1.367785 11.000000 6.450604
9689 1.370355 11.000000 10.469035
9690 1.376056 11.000000 3.564820
9691 1.378848 11.000000 4.764961
9692 1.383304 11.000000 3.139564
9693 1.384554 11.000000 7.324670
9694 1.387286 11.000000 9.067782
9695 1.388947 11.000000 1.713247
9696 1.390144 11.000000 8.652075
9697 1.395118 11.000000 5.739404
9698 1.399596 11.000000 8.857811
9699 1.407966 11.000000 8.426256
9700 1.409509 11.000000 2.735579
9701 1.416098 11.000000 9.886909
9702 1.416289 11.000000 2.109438
9703 1.436397 11.000000 7.109165
9704 1.453920 11.000000 5.324539
9705 1.486887 11.000000 4.551082
9706 1.489460 11.000000 4.932124
9707 1.506409 11.000000 10.666843
9708 1.508807 11.000000 6.864471
9709 1.519221 11.000000 8.175345
9710 1.524955 11.000000 10.109751
9711 1.536243 11.000000 9.692392
9712 1.537958 11.000000 2.529922
9713 1.541810 11.000000 10.837456
9714 1.542810 11.000000 3.866659
9715 1.544766 11.000000 5.899749
9716 1.546039 11.000000 2.966617
9717 1.547990 11.000000 1.875102
9718 1.549333 11.000000 1.185754
9719 1.549923 11.000000 3.421247
9720 1.559252 11.000000 4.332909
9721 1.560212 11.000000 10.327640
9722 1.561821 11.000000 1.394889
9723 1.563407 11.000000 9.480796
9724 1.565065 11.000000 6.355335
9725 1.565951 11.000000 5.542784
9726 1.566762 11.000000 4.098665
9727 1.571606 11.000000 7.698328
9728 1.572685 11.000000 2.311275
9729 1.575424 11.000000 7.931794
9730 1.575518 11.000000 6.129531
9731 1.579644 11.000000 6.607510
9732 1.583129 11.000000 9.257055
9733 1.587129 11.000000 7.490762
9734 1.605773 11.000000 1.613471
9735 1.608561 11.000000 8.586787
9736 1.612806 11.000000 3.659679
9737 1.613967 11.000000 5.127183
9738 1.616659 11.000000 3.203583
9739 1.618517 11.000000 9.026296
9740 1.622794 11.000000 4.699480
9741 1.629622 11.000000 10.521215
9742 1.636344 11.000000 8.805887
9743 1.637183 11.000000 7.281971
9744 1.649901 11.000000 2.754074
9745 1.653029 11.000000 8.343216
9746 1.653541 11.000000 2.079952
9747 1.659691 11.000000 9.925475
9748 1.683178 11.000000 7.054441
9749 1.685952 11.000000 5.734372
9750 1.720669 11.000000 5.337688
9751 1.724850 11.000000 6.806017
9752 1.728842 11.000000 1.175691
9753 1.734458 11.000000 10.854105
9754 1.737261 11.000000 10.689791
9755 1.747766 11.000000 4.897036
9756 1.753720 11.000000 1.369083
9757 1.757328 11.000000 9.713226
9758 1.757984 11.000000 8.083887
9759 1.758993 11.000000 10.160582
9760 1.764379 11.000000 3.919868
9761 1.766627 11.000000 4.441959
9762 1.769519 11.000000 1.817469
9763 1.771651 11.000000 2.520248
9764 1.775793 11.000000 3.450422
9765 1.783448 11.000000 6.465854
9766 1.789126 11.000000 2.984544
9767 1.790213 11.000000 5.988965
9768 1.792315 11.000000 4.187255
9769 1.792612 11.000000 9.458432
9770 1.797236 11.000000 7.782997
9771 1.819217 11.000000 10.398878
9772 1.824953 11.000000 6.239859
9773 1.826444 11.000000 2.280669
9774 1.830146 11.000000 9.203444
9775 1.831000 11.000000 7.511959
9776 1.844348 11.000000 1.568280
9777 1.849785 11.000000 8.506502
9778 1.854735 11.000000 5.549722
9779 1.867293 11.000000 4.639188
9780 1.876090 11.000000 3.710004
9781 1.884313 11.000000 3.220652
9782 1.884866 11.000000 5.104146
9783 1.889913 11.000000 8.731740
9784 1.890832 11.000000 10.596857
9785 1.893693 11.000000 8.970581
9786 1.896705 11.000000 6.658951
9787 1.901034 11.000000 7.236477
9788 1.915666 11.000000 2.028760
9789 1.916642 11.000000 1.169437
9790 1.919147 11.000000 2.742403
9791 1.929418 11.000000 10.831163
9792 1.931620 11.000000 9.951095
9793 1.938351 11.000000 8.276598
9794 1.947401 11.000000 6.962840
9795 1.962342 11.000000 5.818750
9796 1.971447 11.000000 1.349862
9797 1.990470 11.000000 9.663265
9798 1.994118 11.000000 7.974607
9799 2.003388 11.000000 10.222477
9800 2.011048 11.000000 4.006756
9801 2.019780 11.000000 5.322434
9802 2.020530 11.000000 1.760007
9803 2.030575 11.000000 4.842106
9804 2.039289 11.000000 4.291648
9805 2.040221 11.000000 3.487672
9806 2.046074 11.000000 2.483296
9807 2.052025 11.000000 9.359507
9808 2.060019 11.000000 6.124548
9809 2.063773 11.000000 10.680586
9810 2.070455 11.000000 7.690282
9811 2.071458 11.000000 2.974230
9812 2.071485 11.000000 10.451401
9813 2.081649 11.000000 6.426656
9814 2.090050 11.000000 1.528370
9815 2.106269 11.000000 4.541094
9816 2.115294 11.000000 7.415753
9817 2.115461 11.000000 2.229707
9818 2.120237 11.000000 1.165518
9819 2.135990 11.000000 6.746371
9820 2.136761 11.000000 5.602320
9821 2.139077 11.000000 8.531222
9822 2.144161 11.000000 10.847973
9823 2.147760 11.000000 9.115588
9824 2.155505 11.000000 3.780596
9825 2.168554 11.000000 3.234764
9826 2.177058 11.000000 8.818143
9827 2.185900 11.000000 5.055497
9828 2.189445 11.000000 7.105267
9829 2.195761 11.000000 8.197969
9830 2.198063 11.000000 9.867075
9831 2.200445 11.000000 1.949776
9832 2.209844 11.000000 1.334094
9833 2.211241 11.000000 10.128109
9834 2.222594 11.000000 2.703869
9835 2.238830 11.000000 5.913695
9836 2.239466 11.000000 9.549215
9837 2.248427 11.000000 10.634048
9838 2.261008 11.000000 10.369529
9839 2.278736 11.000000 1.691138
9840 2.292394 11.000000 7.899176
9841 2.301630 11.000000 4.086384
9842 2.315518 11.000000 5.358966
9843 2.327398 11.000000 4.734300
9844 2.331358 11.000000 3.532444
9845 2.339508 11.000000 10.834483
9846 2.341852 11.000000 1.167302
9847 2.345626 11.000000 6.250996
9848 2.349072 11.000000 1.489833
9849 2.362546 11.000000 4.378996
9850 2.375508 11.000000 2.438277
9851 2.376264 11.000000 6.884687
9852 2.383180 11.000000 2.955349
9853 2.385448 11.000000 6.551164
9854 2.398512 11.000000 7.613853
9855 2.403932 11.000000 8.409222
9856 2.405462 11.000000 7.327419
9857 2.408545 11.000000 2.150795
9858 2.410910 11.000000 9.331777
9859 2.422229 11.000000 10.518630
9860 2.435850 11.000000 5.677012
9861 2.444755 11.000000 9.016782
9862 2.458439 11.000000 10.012327
9863 2.463623 11.000000 3.238615
9864 2.464145 11.000000 9.716353
9865 2.465152 11.000000 1.849668
9866 2.467655 11.000000 1.334231
9867 2.471163 11.000000 5.080862
9868 2.474462 11.000000 3.820677
9869 2.474648 11.000000 10.258243
9870 2.476993 11.000000 10.701806
9871 2.482902 11.000000 8.696547
9872 2.526765 11.000000 8.094493
9873 2.534190 11.000000 6.020404
9874 2.554281 11.000000 1.595320
9875 2.567817 11.000000 10.856932
9876 2.570212 11.000000 1.161464
9877 2.574582 11.000000 2.704853
9878 2.585052 11.000000 7.101341
9879 2.614214 11.000000 10.454722
9880 2.615708 11.000000 4.808014
9881 2.641032 11.000000 5.401446
9882 2.641549 11.000000 4.492642
9883 2.652819 11.000000 2.079922
9884 2.656553 11.000000 4.137599
9885 2.661317 11.000000 3.473249
9886 2.661949 11.000000 7.789430
9887 2.670692 11.000000 10.651494
9888 2.673053 11.000000 1.372628
9889 2.674667 11.000000 6.743166
9890 2.693624 11.000000 6.382896
9891 2.695846 11.000000 9.575877
9892 2.704363 11.000000 2.376202
9893 2.705874 11.000000 9.909014
9894 2.714088 11.000000 10.185429
9895 2.726004 11.000000 1.817327
9896 2.728326 11.000000 8.371633
9897 2.737233 11.000000 3.057536
9898 2.739003 11.000000 9.258631
9899 2.752668 11.000000 7.427021
9900 2.763477 11.000000 5.728016
9901 2.767767 11.000000 10.837111
9902 2.779168 11.000000 8.951856
9903 2.786306 11.000000 1.169679
9904 2.792094 11.000000 3.775439
9905 2.800394 11.000000 1.577670
9906 2.810186 11.000000 10.409820
9907 2.820471 11.000000 5.120995
9908 2.845049 11.000000 8.649281
9909 2.851734 11.000000 6.066765
9910 2.866527 11.000000 10.636671
9911 2.894216 11.000000 1.350518
9912 2.902057 11.000000 2.720125
9913 2.906221 11.000000 8.078116
9914 2.910115 11.000000 7.046141
9915 2.913655 11.000000 2.083135
9916 2.946251 11.000000 4.774757
9917 2.948045 11.000000 9.782047
9918 2.951321 11.000000 10.076916
9919 2.963836 11.000000 10.832216
9920 2.973572 11.000000 3.361247
9921 2.978790 11.000000 1.800660
9922 2.980151 11.000000 4.401303
9923 3.000867 11.000000 10.311129
9924 3.003607 11.000000 6.647667
9925 3.009158 11.000000 9.466522
9926 3.013633 11.000000 2.413364
9927 3.018555 11.000000 1.152472
9928 3.019421 11.000000 7.695940
9929 3.024712 11.000000 5.462698
9930 3.033690 11.000000 1.549614
9931 3.035922 11.000000 4.046613
9932 3.038734 11.000000 10.537292
9933 3.102078 11.000000 6.279849
9934 3.108242 11.000000 1.317437
9935 3.111428 11.000000 10.710695
9936 3.128864 11.000000 9.159325
9937 3.128915 11.000000 3.045142
9938 3.137690 11.000000 3.661872
9939 3.144481 11.000000 5.825268
9940 3.149640 11.000000 8.414737
9941 3.154705 11.000000 7.324904
9942 3.177151 11.000000 2.165658
9943 3.178331 11.000000 8.828267
9944 3.185958 11.000000 5.126885
9945 3.192922 11.000000 10.865931
9946 3.204778 11.000000 9.948206
9947 3.211704 11.000000 1.918801
9948 3.223078 11.000000 10.199724
9949 3.237266 11.000000 10.441801
9950 3.240072 11.000000 9.674199
9951 3.243538 11.000000 1.677052
9952 3.253680 11.000000 2.695318
9953 3.260522 11.000000 1.440598
9954 3.265076 11.000000 1.177462
9955 3.277376 11.000000 8.000700
9956 3.290727 11.000000 6.927463
9957 3.290812 11.000000 10.638740
9958 3.296042 11.000000 4.701245
9959 3.366295 11.000000 2.387216
9960 3.372501 11.000000 9.406383
9961 3.375383 11.000000 10.810884
9962 3.380667 11.000000 4.276761
9963 3.408931 11.000000 6.511412
9964 3.427935 11.000000 1.333041
9965 3.434033 11.000000 3.391399
9966 3.438922 11.000000 6.036467
9967 3.442009 11.000000 7.606824
9968 3.443601 11.000000 5.522450
9969 3.446618 11.000000 3.878448
9970 3.447490 11.000000 10.327156
9971 3.465400 11.000000 10.049107
9972 3.471276 11.000000 10.576676
9973 3.472756 11.000000 1.572883
9974 3.477649 11.000000 2.090840
9975 3.482766 11.000000 1.828257
9976 3.492447 11.000000 3.005645
9977 3.496597 11.000000 1.170155
9978 3.498035 11.000000 9.769107
9979 3.513517 11.000000 8.743254
9980 3.534342 11.000000 9.117753
9981 3.541232 11.000000 8.313686
9982 3.544877 11.000000 10.828617
9983 3.545169 11.000000 5.063422
9984 3.601141 11.000000 2.621201
9985 3.609859 11.000000 7.212867
9986 3.635138 11.000000 1.411070
9987 3.646383 11.000000 10.665393
9988 3.658353 11.000000 9.514251
9989 3.662227 11.000000 10.432057
9990 3.678069 11.000000 10.180566
9991 3.684758 11.000000 4.570415
9992 3.691555 11.000000 1.176722
9993 3.692003 11.000000 2.303334
9994 3.697741 11.000000 1.686758
9995 3.726965 11.000000 7.913355
9996 3.728114 11.000000 6.800642
9997 3.743880 11.000000 9.885612
9998 3.751375 11.000000 1.972523
9999 3.752231 11.000000 10.841163
10000 3.787667 11.000000 6.302382
10001 3.794444 11.000000 5.812227
10002 3.802703 11.000000 3.665292
10003 3.816687 11.000000 2.891077
10004 3.824868 11.000000 1.324328
10005 3.838911 11.000000 10.620751
10006 3.849958 11.000000 4.126683
10007 3.863335 11.000000 3.259519
10008 3.868430 11.000000 1.532641
10009 3.868938 11.000000 8.597106
10010 3.878241 11.000000 10.390655
10011 3.889698 11.000000 9.279018
10012 3.897810 11.000000 5.370410
10013 3.904386 11.000000 8.965907
10014 3.915880 11.000000 10.131026
10015 3.919914 11.000000 1.160572
10016 3.936142 11.000000 7.503168
10017 3.936372 11.000000 9.634522
10018 3.939322 11.000000 10.809645
10019 3.946782 11.000000 4.927631
10020 3.956040 11.000000 2.558145
10021 3.958382 11.000000 1.766027
10022 3.960959 11.000000 2.214957
10023 4.032669 11.000000 8.250925
10024 4.038579 11.000000 1.368044
10025 4.043300 11.000000 10.590727
10026 4.048290 11.000000 9.878798
10027 4.063596 11.000000 1.973565
10028 4.097272 11.000000 10.335753
10029 4.118925 11.000000 10.834001
10030 4.124337 11.000000 1.594555
10031 4.124710 11.000000 1.173933
10032 4.137776 11.000000 7.080807
10033 4.143261 11.000000 6.595653
10034 4.146905 11.000000 2.885149
10035 4.172233 11.000000 4.541339
10036 4.176887 11.000000 9.428751
10037 4.189597 11.000000 10.077689
10038 4.202963 11.000000 3.643895
10039 4.209773 11.000000 6.056812
10040 4.215630 11.000000 2.393295
10041 4.227800 11.000000 10.686717
10042 4.241314 11.000000 8.713138
10043 4.242242 11.000000 7.848620
10044 4.247812 11.000000 1.373726
10045 4.260824 11.000000 3.243983
10046 4.271287 11.000000 10.486183
10047 4.282774 11.000000 5.601835
10048 4.283429 11.000000 1.817895
10049 4.286693 11.000000 9.097052
10050 4.292105 11.000000 9.727350
10051 4.301632 11.000000 2.124157
10052 4.327217 11.000000 1.178790
10053 4.332762 11.000000 4.122829
10054 4.341087 11.000000 10.849434
10055 4.353976 11.000000 10.261081
10056 4.364616 11.000000 5.061790
10057 4.366534 11.000000 1.584189
10058 4.387899 11.000000 2.636953
10059 4.428015 11.000000 9.978961
10060 4.433325 11.000000 8.347417
10061 4.441846 11.000000 10.661963
10062 4.465377 11.000000 1.387277
10063 4.468832 11.000000 7.433021
10064 4.491872 11.000000 9.429337
10065 4.511128 11.000000 10.456761
10066 4.520381 11.000000 1.188884
10067 4.526618 11.000000 1.984497
10068 4.528395 11.000000 6.364488
10069 4.539424 11.000000 2.954612
10070 4.551207 11.000000 10.833007
10071 4.554302 11.000000 2.337288
10072 4.562274 11.000000 1.695104
10073 4.582151 11.000000 6.842003
10074 4.594272 11.000000 10.219819
10075 4.610327 11.000000 8.793074
10076 4.613738 11.000000 9.730998
10077 4.615553 11.000000 3.763048
10078 4.617047 11.000000 4.607441
10079 4.651607 11.000000 1.432399
10080 4.652606 11.000000 3.361944
10081 4.660548 11.000000 10.635284
10082 4.674263 11.000000 7.951136
10083 4.675705 11.000000 5.417640
10084 4.678097 11.000000 9.146555
10085 4.700091 11.000000 1.195216
10086 4.710950 11.000000 9.992487
10087 4.719319 11.000000 5.911266
10088 4.751033 11.000000 10.415909
10089 4.751829 11.000000 10.839740
10090 4.756548 11.000000 2.623384
10091 4.771842 11.000000 1.882322
10092 4.773356 11.000000 2.177980
10093 4.803484 11.000000 1.611648
10094 4.821011 11.000000 9.512116
10095 4.829808 11.000000 8.432142
10096 4.835123 11.000000 4.206132
10097 4.839186 11.000000 7.188977
10098 4.858678 11.000000 10.665556
10099 4.860322 11.000000 1.349845
10100 4.873843 11.000000 10.188364
10101 4.876023 11.000000 5.002434
10102 4.890688 11.000000 2.997263
10103 4.898729 11.000000 1.156664
10104 4.934780 11.000000 9.855407
10105 4.943314 11.000000 6.394510
10106 4.954283 11.000000 10.482283
10107 4.968795 11.000000 10.846468
10108 4.972876 11.000000 7.629511
10109 4.988613 11.000000 2.390236
10110 5.003750 11.000000 8.855261
10111 5.003916 11.000000 1.481507
10112 5.006007 11.000000 1.776835
10113 5.011770 11.000000 9.233817
10114 5.029074 11.000000 3.724983
10115 5.032373 11.000000 2.051061
10116 5.076339 11.000000 1.214348
10117 5.079362 11.000000 10.314431
10118 5.079937 11.000000 3.338465
10119 5.081892 11.000000 10.680655
10120 5.090479 11.000000 5.537443
10121 5.104161 11.000000 9.619263
10122 5.113968 11.000000 6.812804
10123 5.121326 11.000000 10.068469
10124 5.125158 11.000000 2.744137
10125 5.150588 11.000000 8.092868
10126 5.151612 11.000000 4.596287
10127 5.178833 11.000000 1.640499
10128 5.195001 11.000000 10.859565
10129 5.197302 11.000000 1.393427
10130 5.212306 11.000000 10.513689
10131 5.224231 11.000000 5.989461
10132 5.233167 11.000000 8.520521
10133 5.274784 11.000000 2.199986
10134 5.275285 11.000000 1.174433
10135 5.281738 11.000000 9.849961
10136 5.285163 11.000000 1.892187
10137 5.296189 11.000000 9.391313
10138 5.303417 11.000000 4.077973
10139 5.307000 11.000000 5.137775
10140 5.307820 11.000000 2.506079
10141 5.309660 11.000000 10.714582
10142 5.310990 11.000000 7.282118
10143 5.317465 11.000000 10.299899
10144 5.321135 11.000000 3.067455
10145 5.345458 11.000000 9.024891
10146 5.380981 11.000000 1.604715
10147 5.395616 11.000000 1.367321
10148 5.415356 11.000000 10.077922
10149 5.435259 11.000000 6.424424
10150 5.436639 11.000000 10.559291
10151 5.439793 11.000000 10.834826
10152 5.466877 11.000000 3.568714
10153 5.469889 11.000000 7.754514
10154 5.475519 11.000000 9.649036
10155 5.481804 11.000000 1.160813
10156 5.530376 11.000000 8.695890
10157 5.532629 11.000000 10.366909
10158 5.537447 11.000000 2.078287
10159 5.540637 11.000000 1.796888
10160 5.552139 11.000000 2.770576
10161 5.571902 11.000000 5.612442
10162 5.578992 11.000000 2.391132
10163 5.592861 11.000000 10.676122
10164 5.593928 11.000000 1.527579
10165 5.599335 11.000000 6.893402
10166 5.604174 11.000000 1.319712
10167 5.608361 11.000000 9.310421
10168 5.611879 11.000000 4.824783
10169 5.625562 11.000000 8.235696
10170 5.628490 11.000000 4.414991
10171 5.635260 11.000000 9.891891
10172 5.648339 11.000000 10.180877
10173 5.648345 11.000000 10.840630
10174 5.657791 11.000000 3.196415
10175 5.704419 11.000000 10.490263
10176 5.709141 11.000000 1.164286
10177 5.745569 11.000000 6.038653
10178 5.759283 11.000000 8.991492
10179 5.771715 11.000000 1.653944
10180 5.771784 11.000000 3.943384
10181 5.773291 11.000000 7.364549
10182 5.783595 11.000000 9.591360
10183 5.785474 11.000000 1.925761
10184 5.807322 11.000000 1.388820
10185 5.810828 11.000000 5.245468
10186 5.822322 11.000000 10.651335
10187 5.830844 11.000000 10.847826
10188 5.832756 11.000000 2.215078
10189 5.841892 11.000000 10.348184
10190 5.867058 11.000000 2.543401
10191 5.874123 11.000000 10.084965
10192 5.904542 11.000000 1.181738
10193 5.908417 11.000000 6.515784
10194 5.917784 11.000000 2.867262
10195 5.918298 11.000000 8.598932
10196 5.946597 11.000000 9.833486
10197 5.947345 11.000000 3.590315
10198 5.952651 11.000000 7.826332
10199 5.965407 11.000000 9.289002
10200 5.985790 11.000000 1.543000
10201 5.994934 11.000000 10.532411
10202 5.995729 11.000000 10.778933
10203 6.008475 11.000000 1.775821
10204 6.032408 11.000000 3.213647
10205 6.039359 11.000000 1.349486
10206 6.064382 11.000000 2.050236
10207 6.068620 11.000000 4.318799
10208 6.071744 11.000000 10.302371
10209 6.086272 11.000000 6.980262
10210 6.086302 11.000000 4.785152
10211 6.113691 11.000000 5.679765
10212 6.115255 11.000000 8.229937
10213 6.116061 11.000000 1.163184
10214 6.121849 11.000000 9.569117
10215 6.136650 11.000000 10.082137
10216 6.141134 11.000000 8.948846
10217 6.142815 11.000000 2.357328
10218 6.148210 11.000000 10.844407
10219 6.170075 11.000000 10.629778
10220 6.215240 11.000000 1.575695
10221 6.228458 11.000000 6.155121
10222 6.233491 11.000000 2.667608
10223 6.244420 11.000000 1.363544
10224 6.245367 11.000000 7.439831
10225 6.250263 11.000000 10.400491
10226 6.250541 11.000000 1.841214
10227 6.253159 11.000000 5.235747
10228 6.253890 11.000000 9.849246
10229 6.319677 11.000000 9.266786
10230 6.321076 11.000000 1.178056
10231 6.323656 11.000000 10.817248
10232 6.324166 11.000000 3.949667
10233 6.324330 11.000000 3.026283
10234 6.347580 11.000000 2.138980
10235 6.357605 11.000000 8.628682
10236 6.366420 11.000000 10.148353
10237 6.369608 11.000000 3.471017
10238 6.373356 11.000000 10.607851
10239 6.399319 11.000000 6.601937
10240 6.438247 11.000000 1.636801
10241 6.439287 11.000000 9.590857
10242 6.448091 11.000000 1.403344
10243 6.479012 11.000000 10.379757
10244 6.492110 11.000000 7.861326
10245 6.496632 11.000000 4.489588
10246 6.498865 11.000000 2.437421
10247 6.499208 11.000000 1.882335
10248 6.503033 11.000000 10.805108
10249 6.511496 11.000000 1.190256
10250 6.531088 11.000000 9.889440
10251 6.554060 11.000000 8.965055
10252 6.561677 11.000000 8.290713
10253 6.579941 11.000000 10.595675
10254 6.586325 11.000000 7.050140
10255 6.591699 11.000000 2.814954
10256 6.596714 11.000000 5.869503
10257 6.606881 11.000000 4.956775
10258 6.625418 11.000000 10.148457
10259 6.637148 11.000000 2.131364
10260 6.650127 11.000000 1.593359
10261 6.652790 11.000000 5.462922
10262 6.658412 11.000000 9.330818
10263 6.670780 11.000000 1.375733
10264 6.676005 11.000000 10.856082
10265 6.692329 11.000000 3.216426
10266 6.706546 11.000000 1.175039
10267 6.711967 11.000000 10.384263
10268 6.720950 11.000000 3.712139
10269 6.730184 11.000000 7.446194
10270 6.735098 11.000000 1.825031
10271 6.740241 11.000000 10.704576
10272 6.753213 11.000000 9.643677
10273 6.760030 11.000000 6.265985
10274 6.811829 11.000000 4.204975
10275 6.814942 11.000000 2.618588
10276 6.818055 11.000000 9.933039
10277 6.819418 11.000000 8.651703
10278 6.841709 11.000000 10.555423
10279 6.849825 11.000000 2.342808
10280 6.877467 11.000000 1.569151
10281 6.884545 11.000000 1.349164
10282 6.890186 11.000000 10.185421
10283 6.893160 11.000000 10.842841
10284 6.896347 11.000000 6.730797
10285 6.902272 11.000000 1.160850
10286 6.910035 11.000000 9.083537
10287 6.919144 11.000000 2.052579
10288 6.949882 11.000000 8.189039
10289 6.978680 11.000000 10.403588
10290 6.982850 11.000000 4.718667
10291 6.986859 11.000000 2.963857
10292 6.994436 11.000000 1.802554
10293 6.997264 11.000000 10.681612
10294 7.009978 11.000000 9.408307
10295 7.028766 11.000000 7.740679
10296 7.036287 11.000000 3.441121
10297 7.049463 11.000000 9.739939
10298 7.058468 11.000000 5.246253
10299 7.087944 11.000000 1.197199
10300 7.091260 11.000000 5.784672
10301 7.093383 11.000000 1.412356
10302 7.109677 11.000000 10.827642
10303 7.109940 11.000000 10.011284
10304 7.131273 11.000000 1.619268
10305 7.134034 11.000000 10.547746
10306 7.135283 11.000000 2.628977
10307 7.145940 11.000000 2.289329
10308 7.146132 11.000000 7.204448
10309 7.157019 11.000000 10.267776
10310 7.161469 11.000000 3.905803
10311 7.163077 11.000000 8.874963
10312 7.206411 11.000000 2.002164
10313 7.210854 11.000000 6.285713
10314 7.253378 11.000000 8.494592
10315 7.276379 11.000000 10.674842
10316 7.276421 11.000000 1.151088
10317 7.290730 11.000000 3.183676
10318 7.293907 11.000000 1.329709
10319 7.296640 11.000000 4.409705
10320 7.297521 11.000000 9.569246
10321 7.300616 11.000000 1.778473
10322 7.307235 11.000000 10.849326
10323 7.320682 11.000000 9.213645
10324 7.326785 11.000000 10.427622
10325 7.334199 11.000000 6.764960
10326 7.350553 11.000000 1.519861
10327 7.359691 11.000000 9.860561
10328 7.367149 11.000000 10.144092
10329 7.413482 11.000000 8.045372
10330 7.418297 11.000000 2.485293
10331 7.425561 11.000000 2.866302
10332 7.436870 11.000000 4.951469
10333 7.450031 11.000000 2.183194
10334 7.475471 11.000000 1.174160
10335 7.477110 11.000000 10.610874
10336 7.480385 11.000000 3.607919
10337 7.487419 11.000000 7.560162
10338 7.489092 11.000000 10.814124
10339 7.508240 11.000000 5.472105
10340 7.515242 11.000000 1.917887
10341 7.528877 11.000000 1.363764
10342 7.529085 11.000000 8.848541
10343 7.529373 11.000000 1.654718
10344 7.535343 11.000000 10.354083
10345 7.570858 11.000000 9.501700
10346 7.574729 11.000000 5.990938
10347 7.601653 11.000000 10.079071
10348 7.622816 11.000000 9.791612
10349 7.627674 11.000000 4.080476
10350 7.662885 11.000000 10.803552
10351 7.666015 11.000000 3.258242
10352 7.673123 11.000000 1.167185
10353 7.674022 11.000000 10.577463
10354 7.674760 11.000000 1.513184
10355 7.676598 11.000000 8.430025
10356 7.691857 11.000000 7.053285
10357 7.696639 11.000000 6.495721
10358 7.698077 11.000000 9.188447
10359 7.705128 11.000000 2.650300
10360 7.737700 11.000000 2.356492
10361 7.743442 11.000000 2.067176
10362 7.746839 11.000000 4.612549
10363 7.754095 11.000000 10.346187
10364 7.757119 11.000000 1.778090
10365 7.775206 11.000000 1.321732
10366 7.832019 11.000000 10.104180
10367 7.844508 11.000000 2.944972
10368 7.848690 11.000000 10.850634
10369 7.860252 11.000000 10.676109
10370 7.872068 11.000000 9.837240
10371 7.874478 11.000000 7.974397
10372 7.882458 11.000000 9.514197
10373 7.886426 11.000000 1.531663
10374 7.896931 11.000000 1.159742
10375 7.899118 11.000000 8.821903
10376 7.911411 11.000000 5.152036
10377 7.922587 11.000000 7.446420
10378 7.929037 11.000000 10.495290
10379 7.933716 11.000000 3.704449
10380 7.951297 11.000000 5.711530
10381 7.987542 11.000000 1.976368
10382 7.998473 11.000000 1.726165
10383 8.006301 11.000000 1.346607
10384 8.009099 11.000000 2.278223
10385 8.019845 11.000000 10.286838
10386 8.044837 11.000000 10.840816
10387 8.048512 11.000000 2.619996
10388 8.048733 11.000000 3.328798
10389 8.056998 11.000000 9.170478
10390 8.063360 11.000000 4.223812
10391 8.066990 11.000000 6.207007
10392 8.089637 11.000000 8.452859
10393 8.090057 11.000000 10.667672
10394 8.098577 11.000000 10.039728
10395 8.107910 11.000000 1.171940
10396 8.109143 11.000000 6.759671
10397 8.136030 11.000000 9.749352
10398 8.142865 11.000000 1.535455
10399 8.178949 11.000000 10.471661
10400 8.200663 11.000000 4.719742
10401 8.207414 11.000000 9.444939
10402 8.220281 11.000000 2.991610
10403 8.227279 11.000000 1.792048
10404 8.244072 11.000000 2.067669
10405 8.244148 11.000000 1.353999
10406 8.250731 11.000000 10.838540
10407 8.272336 11.000000 7.709567
10408 8.279262 11.000000 10.238176
10409 8.289777 11.000000 8.876792
10410 8.292508 11.000000 2.380553
10411 8.302779 11.000000 5.499389
10412 8.303280 11.000000 7.182517
10413 8.311200 11.000000 1.159336
10414 8.318230 11.000000 10.655342
10415 8.357305 11.000000 9.960024
10416 8.369673 11.000000 8.130598
10417 8.372332 11.000000 3.868208
10418 8.374800 11.000000 1.582569
10419 8.408675 11.000000 2.708553
10420 8.416309 11.000000 10.438131
10421 8.421525 11.000000 5.113582
10422 8.422631 11.000000 3.416783
10423 8.427817 11.000000 9.652636
10424 8.449239 11.000000 1.334940
10425 8.452927 11.000000 5.931169
10426 8.455545 11.000000 6.443694
10427 8.459046 11.000000 10.830494
10428 8.460430 11.000000 1.848025
10429 8.465055 11.000000 9.246907
10430 8.488831 11.000000 4.341305
10431 8.510058 11.000000 2.131885
10432 8.522036 11.000000 1.170304
10433 8.526554 11.000000 8.547099
10434 8.528618 11.000000 10.179458
10435 8.537454 11.000000 10.631219
10436 8.575280 11.000000 1.474438
10437 8.600796 11.000000 2.435437
10438 8.604933 11.000000 3.064193
10439 8.605791 11.000000 6.851688
10440 8.606864 11.000000 7.504811
10441 8.623119 11.000000 9.896417
10442 8.639946 11.000000 1.676948
10443 8.643092 11.000000 10.395943
10444 8.658851 11.000000 10.827739
10445 8.664554 11.000000 4.736347
10446 8.671201 11.000000 9.548121
10447 8.679577 11.000000 8.931313
10448 8.712270 11.000000 1.154617
10449 8.716776 11.000000 1.325020
10450 8.718528 11.000000 5.527893
10451 8.720090 11.000000 7.897389
10452 8.722396 11.000000 1.922510
10453 8.742301 11.000000 10.631415
10454 8.771223 11.000000 3.646703
10455 8.774889 11.000000 2.754235
10456 8.779112 11.000000 6.211570
10457 8.782349 11.000000 4.047221
10458 8.786683 11.000000 10.139859
10459 8.802475 11.000000 2.190281
10460 8.810795 11.000000 7.205433
10461 8.823570 11.000000 8.270571
10462 8.825479 11.000000 1.511433
10463 8.836436 11.000000 5.127701
10464 8.846345 11.000000 9.243386
10465 8.853271 11.000000 10.425680
10466 8.855748 11.000000 10.839625
10467 8.873903 11.000000 9.833823
10468 8.905440 11.000000 1.168937
10469 8.906123 11.000000 1.731288
10470 8.906721 11.000000 3.307739
10471 8.920320 11.000000 6.578149
10472 8.923698 11.000000 2.481465
10473 8.928612 11.000000 5.866750
10474 8.931692 11.000000 4.403984
10475 8.948344 11.000000 10.668603
10476 8.953417 11.000000 8.645348
10477 8.967110 11.000000 1.342446
10478 8.973344 11.000000 9.536776
10479 9.003943 11.000000 1.980888
10480 9.007235 11.000000 7.606187
10481 9.008740 11.000000 10.249819
10482 9.045848 11.000000 2.963726
10483 9.067145 11.000000 10.516373
10484 9.067373 11.000000 6.931929
10485 9.067724 11.000000 10.835493
10486 9.071890 11.000000 1.540442
10487 9.073845 11.000000 10.007124
10488 9.074925 11.000000 4.757563
10489 9.101449 11.000000 8.998929
10490 9.111824 11.000000 3.837599
10491 9.112822 11.000000 1.168365
10492 9.114126 11.000000 2.256411
10493 9.118862 11.000000 5.452335
10494 9.120019 11.000000 7.985251
10495 9.170112 11.000000 6.248573
10496 9.170731 11.000000 1.768303
10497 9.185718 11.000000 9.712397
10498 9.188366 11.000000 2.636617
10499 9.202714 11.000000 5.089102
10500 9.203014 11.000000 10.681205
10501 9.204518 11.000000 1.349983
10502 9.207652 11.000000 7.307237
10503 9.208104 11.000000 8.357082
10504 9.214430 11.000000 3.535273
10505 9.216875 11.000000 10.367947
10506 9.218595 11.000000 4.141228
10507 9.236917 11.000000 9.348936
10508 9.267995 11.000000 5.789495
10509 9.279143 11.000000 10.847166
10510 9.289013 11.000000 2.021684
10511 9.298722 11.000000 10.154593
10512 9.312443 11.000000 1.556514
10513 9.313812 11.000000 3.211901
10514 9.317458 11.000000 6.633938
10515 9.324991 11.000000 1.164427
10516 9.326492 11.000000 8.707680
10517 9.330582 11.000000 4.481033
10518 9.339793 11.000000 10.554080
10519 9.367186 11.000000 7.701929
10520 9.370663 11.000000 9.895869
10521 9.374053 11.000000 2.364877
10522 9.431512 11.000000 1.342380
10523 9.431745 11.000000 1.788480
10524 9.432733 11.000000 2.892530
10525 9.434097 11.000000 6.985566
10526 9.444997 11.000000 10.791291
10527 9.452572 11.000000 6.076910
10528 9.454753 11.000000 9.050008
10529 9.459487 11.000000 8.101285
10530 9.468073 11.000000 4.811253
10531 9.475936 11.000000 10.348746
10532 9.484309 11.000000 3.822008
10533 9.488693 11.000000 9.599332
10534 9.493227 11.000000 5.472657
10535 9.514051 11.000000 5.146576
10536 9.521560 11.000000 10.612073
10537 9.528138 11.000000 7.343303
10538 9.529564 11.000000 2.119904
10539 9.540029 11.000000 1.537151
10540 9.545762 11.000000 1.170581
10541 9.547711 11.000000 6.400983
10542 9.551953 11.000000 8.449214
10543 9.554845 11.000000 4.184791
10544 9.564572 11.000000 3.470179
10545 9.565725 11.000000 10.067190
10546 9.575811 11.000000 2.609829
10547 9.594346 11.000000 9.317591
10548 9.620782 11.000000 5.791333
10549 9.624697 11.000000 10.859611
10550 9.645995 11.000000 8.809266
10551 9.649448 11.000000 1.911462
10552 9.657462 11.000000 3.133595
10553 9.669476 11.000000 4.535287
10554 9.671712 11.000000 1.358196
10555 9.680756 11.000000 7.908735
10556 9.682027 11.000000 7.616290
10557 9.682143 11.000000 9.812030
10558 9.689954 11.000000 10.483402
10559 9.692324 11.000000 6.731432
10560 9.694655 11.000000 1.679150
10561 9.698249 11.000000 10.714085
10562 9.702479 11.000000 10.244233
10563 9.725889 11.000000 2.342425
10564 9.747464 11.000000 7.083962
10565 9.761157 11.000000 1.155860
10566 9.775784 11.000000 6.126302
10567 9.786602 11.000000 2.826456
10568 9.788780 11.000000 3.942876
10569 9.792141 11.000000 5.218376
10570 9.796950 11.000000 8.234041
10571 9.797729 11.000000 4.877234
10572 9.817290 11.000000 9.121237
10573 9.819421 11.000000 3.647546
10574 9.826113 11.000000 5.529936
10575 9.832122 11.000000 1.532356
10576 9.832866 11.000000 9.480601
10577 9.837336 11.000000 8.563158
10578 9.854835 11.000000 4.270267
10579 9.862249 11.000000 2.089350
10580 9.862299 11.000000 10.837596
10581 9.865167 11.000000 6.431430
10582 9.868564 11.000000 7.377478
10583 9.873477 11.000000 10.051794
10584 9.878417 11.000000 3.338109
10585 9.880226 11.000000 10.617393
10586 9.889910 11.000000 1.296565
10587 9.896630 11.000000 10.355777
10588 9.907910 11.000000 5.853149
10589 9.913911 11.000000 1.825392
10590 9.919286 11.000000 2.550651
10591 9.935583 11.000000 9.738068
10592 9.935729 11.000000 8.840512
10593 9.957625 11.000000 7.976383
10594 9.964023 11.000000 4.589455
10595 9.967707 11.000000 7.692701
10596 9.967845 11.000000 3.035312
10597 9.983252 11.000000 6.914268
10598 10.011740 11.000000 1.148152
10599 10.030258 11.000000 1.449055
10600 10.034263 11.000000 6.679806
10601 10.051699 11.000000 2.289894
10602 10.054154 11.000000 4.034513
10603 10.055216 11.000000 8.425643
10604 10.056320 11.000000 10.803379
10605 10.057389 11.000000 5.082863
10606 10.058166 11.000000 1.682607
10607 10.060295 11.000000 10.579189
10608 10.061189 11.000000 9.307621
10609 10.077523 11.000000 6.171217
10610 10.078822 11.000000 7.161804
10611 10.084822 11.000000 5.359353
10612 10.094765 11.000000 3.773049
10613 10.096360 11.000000 10.361415
10614 10.102802 11.000000 2.748055
10615 10.111601 11.000000 10.137908
10616 10.113597 11.000000 3.502052
10617 10.113810 11.000000 9.016911
10618 10.117851 11.000000 5.633464
10619 10.121392 11.000000 4.346785
10620 10.122590 11.000000 4.826920
10621 10.128023 11.000000 8.190034
10622 10.135723 11.000000 9.883333
10623 10.141366 11.000000 2.011103
10624 10.147642 11.000000 9.576067
10625 10.148185 11.000000 7.424044
10626 10.149800 11.000000 1.295249
10627 10.152075 11.000000 8.682476
10628 10.158650 11.000000 5.912646
10629 10.161105 11.000000 6.444650
10630 10.162551 11.000000 3.226545
10631 10.219711 11.000000 2.497607
10632 10.220289 11.000000 7.669319
10633 10.221675 11.000000 7.925522
10634 10.236645 11.000000 2.946695
10635 10.240311 11.000000 10.618550
10636 10.242775 11.000000 10.828507
10637 10.243572 11.000000 1.524464
10638 10.256061 11.000000 1.152597
10639 10.264097 11.000000 1.794554
10640 10.267348 11.000000 4.125096
10641 10.267910 11.000000 4.589101
10642 10.288671 11.000000 6.958307
10643 10.289299 11.000000 10.387580
10644 10.304158 11.000000 9.173759
10645 10.314958 11.000000 2.240234
10646 10.315590 11.000000 6.714334
10647 10.318348 11.000000 8.431555
10648 10.327211 11.000000 8.871207
10649 10.332821 11.000000 5.049483
10650 10.336671 11.000000 10.100346
10651 10.337013 11.000000 5.291392
10652 10.340187 11.000000 9.810779
10653 10.349573 11.000000 9.395108
10654 10.353221 11.000000 3.883766
10655 10.356419 11.000000 7.211798
10656 10.358011 11.000000 3.632857
10657 10.359477 11.000000 5.532447
10658 10.360631 11.000000 6.268256
10659 10.370694 11.000000 6.040473
10660 10.376642 11.000000 1.347891
10661 10.379446 11.000000 3.389080
10662 10.380678 11.000000 8.190883
10663 10.383557 11.000000 5.777929
10664 10.390230 11.000000 4.370208
10665 10.391398 11.000000 2.677468
10666 10.399384 11.000000 4.808057
10667 10.407822 11.000000 7.455582
10668 10.410045 11.000000 2.031620
10669 10.411500 11.000000 9.604428
10670 10.412312 11.000000 3.142560
10671 10.414934 11.000000 6.506866
10672 10.422812 11.000000 8.644688
10673 10.433205 11.000000 10.684959
10674 10.438608 11.000000 7.717948
10675 10.440802 11.000000 10.855937
10676 10.449807 11.000000 1.584087
10677 10.455217 11.000000 7.962880
10678 10.460794 11.000000 2.898808
10679 10.465160 11.000000 1.171918
10680 10.473631 11.000000 2.426306
10681 10.476219 11.000000 9.037392
10682 10.478503 11.000000 10.495685
10683 10.482467 11.000000 4.133747
10684 10.487141 11.000000 10.252716
10685 10.489739 11.000000 1.809224
10686 10.503132 11.000000 9.962874
10687 10.545343 11.000000 4.582613
10688 10.547239 11.000000 6.842105
10689 10.560859 11.000000 7.059271
10690 10.562187 11.000000 9.274236
10691 10.570374 11.000000 8.405524
10692 10.573745 11.000000 5.209176
10693 10.584785 11.000000 5.434376
10694 10.585380 11.000000 3.725612
10695 10.585863 11.000000 2.231631
10696 10.586665 11.000000 4.992946
10697 10.597948 11.000000 6.159172
10698 10.598495 11.000000 9.723322
10699 10.599015 11.000000 1.374390
10700 10.599507 11.000000 5.919704
10701 10.599513 11.000000 8.834585
10702 10.603003 11.000000 3.497482
10703 10.603293 11.000000 5.671377
10704 10.606174 11.000000 6.634021
10705 10.606348 11.000000 3.938967
10706 10.610432 11.000000 7.293133
10707 10.610672 11.000000 8.191992
10708 10.610963 11.000000 6.385042
10709 10.612212 11.000000 3.264059
10710 10.618657 11.000000 4.368668
10711 10.619241 11.000000 9.486422
10712 10.620136 11.000000 7.536939
10713 10.631694 11.000000 10.819328
10714 10.634251 11.000000 2.771578
10715 10.634712 11.000000 2.545712
10716 10.636240 11.000000 4.775482
10717 10.638218 11.000000 2.017947
10718 10.638448 11.000000 3.029106
10719 10.638457 11.000000 8.612466
10720 10.643571 11.000000 7.769853
10721 10.648555 11.000000 10.138580
10722 10.652873 11.000000 1.585328
10723 10.654414 11.000000 1.171986
10724 10.660306 11.000000 10.620054
10725 10.661567 11.000000 7.986847
10726 10.668040 11.000000 10.383311
10727 10.674035 11.000000 9.075010
10728 10.679501 11.000000 1.795555
10729 10.681312 11.000000 4.162232
10730 10.694393 11.000000 9.907665
10731 10.780211 11.000000 2.329827
10732 10.784242 11.000000 6.906912
10733 10.790651 11.000000 9.297871
10734 10.792690 11.000000 4.510470
10735 10.792866 11.000000 7.099368
10736 10.799534 11.000000 5.307199
10737 10.800259 11.000000 9.670045
10738 10.800325 11.000000 5.109205
10739 10.802184 11.000000 3.689219
10740 10.802735 11.000000 5.507374
10741 10.802937 11.000000 8.306829
10742 10.805076 11.000000 6.085861
10743 10.807632 11.000000 3.877192
10744 10.809592 11.000000 6.504144
10745 10.809605 11.000000 5.890479
10746 10.809675 11.000000 3.321458
10747 10.810203 11.000000 6.713992
10748 10.811145 11.000000 7.470589
10749 10.812864 11.000000 6.290871
10750 10.812999 11.000000 1.335802
10751 10.813396 11.000000 8.902921
10752 10.813702 11.000000 8.495283
10753 10.814248 11.000000 5.702514
10754 10.814636 11.000000 3.506804
10755 10.815270 11.000000 4.910736
10756 10.816479 11.000000 10.857919
10757 10.819853 11.000000 2.908025
10758 10.819915 11.000000 2.137926
10759 10.820701 11.000000 8.709066
10760 10.821694 11.000000 4.697304
10761 10.821705 11.000000 7.283981
10762 10.822066 11.000000 3.122434
10763 10.824204 11.000000 7.672427
10764 10.824722 11.000000 2.700808
10765 10.825504 11.000000 1.510179
10766 10.829114 11.000000 9.484050
10767 10.830925 11.000000 8.106662
10768 10.831574 11.000000 10.270652
10769 10.833474 11.000000 2.503622
10770 10.833793 11.000000 4.071781
10771 10.835263 11.000000 4.304849
10772 10.836551 11.000000 10.069491
10773 10.836683 11.000000 1.930586
10774 10.837528 11.000000 7.885227
10775 10.837869 11.000000 10.482507
10776 10.840187 11.000000 10.681017
10777 10.845814 11.000000 1.154422
10778 10.847212 11.000000 1.711571
10779 10.850887 11.000000 9.112052
10780 10.854308 11.000000 9.852501
1 1 tri 351 333 300
2 1 tri 520 501 547
3 1 tri 263 246 323
4 1 tri 622 581 589
5 1 tri 504 511 474
6 1 tri 146 171 147
7 1 tri 370 383 417
8 1 tri 630 589 599
9 1 tri 195 163 157
10 1 tri 291 256 286
11 1 tri 242 218 205
12 1 tri 444 420 397
13 1 tri 517 511 552
14 1 tri 612 590 616
15 1 tri 862 879 894
16 1 tri 476 456 500
17 1 tri 703 680 718
18 1 tri 686 725 722
19 1 tri 699 708 666
20 1 tri 722 725 755
21 1 tri 963 952 937
22 1 tri 857 879 839
23 1 tri 593 579 625
24 1 tri 497 531 504
25 1 tri 674 684 657
26 1 tri 653 640 685
27 1 tri 696 735 741
28 1 tri 500 513 476
29 1 tri 682 695 706
30 1 tri 667 695 682
31 1 tri 77 98 81
32 1 tri 202 228 197
33 1 tri 383 434 417
34 1 tri 403 374 448
35 1 tri 640 624 675
36 1 tri 289 238 269
37 1 tri 698 662 694
38 1 tri 350 321 378
39 1 tri 448 419 473
40 1 tri 626 620 647
41 1 tri 523 489 549
42 1 tri 191 231 216
43 1 tri 397 352 391
44 1 tri 145 178 158
45 1 tri 339 291 329
46 1 tri 626 604 595
47 1 tri 500 456 472
48 1 tri 11 12 24
49 1 tri 81 86 65
50 1 tri 170 180 202
51 1 tri 192 160 168
52 1 tri 34 45 26
53 1 tri 184 188 153
54 1 tri 158 128 145
55 1 tri 221 175 211
56 1 tri 76 97 70
57 1 tri 273 288 322
58 1 tri 243 280 232
59 1 tri 346 389 386
60 1 tri 415 453 459
61 1 tri 24 29 40
62 1 tri 163 136 130
63 1 tri 61 41 42
64 1 tri 95 97 123
65 1 tri 111 142 139
66 1 tri 454 421 413
67 1 tri 441 451 399
68 1 tri 130 106 99
69 1 tri 577 583 617
70 1 tri 511 517 479
71 1 tri 652 654 619
72 1 tri 646 629 601
73 1 tri 544 499 490
74 1 tri 439 441 395
75 1 tri 365 407 376
76 1 tri 719 698 728
77 1 tri 563 540 507
78 1 tri 688 723 700
79 1 tri 819 849 854
80 1 tri 839 879 862
81 1 tri 691 714 690
82 1 tri 332 380 368
83 1 tri 696 741 727
84 1 tri 747 699 720
85 1 tri 699 648 681
86 1 tri 779 759 727
87 1 tri 634 652 614
88 1 tri 754 767 733
89 1 tri 829 804 838
90 1 tri 703 737 724
91 1 tri 815 848 838
92 1 tri 904 919 935
93 1 tri 964 992 983
94 1 tri 909 882 917
95 1 tri 846 895 869
96 1 tri 710 746 713
97 1 tri 1018 1014 1002
98 1 tri 1050 1048 1037
99 1 tri 939 965 932
100 1 tri 1035 1048 1042
101 1 tri 1046 1053 1039
102 1 tri 902 918 876
103 1 tri 1061 1052 1057
104 1 tri 1054 1043 1049
105 1 tri 1044 1047 1032
106 1 tri 594 569 555
107 1 tri 709 729 731
108 1 tri 262 272 307
109 1 tri 709 687 706
110 1 tri 657 637 626
111 1 tri 702 684 674
112 1 tri 1023 1028 1008
113 1 tri 1019 1024 1037
114 1 tri 771 728 730
115 1 tri 721 685 675
116 1 tri 584 550 521
117 1 tri 874 856 832
118 1 tri 707 736 716
119 1 tri 832 831 874
120 1 tri 769 773 751
121 1 tri 916 874 870
122 1 tri 970 957 990
123 1 tri 744 729 716
124 1 tri 916 905 874
125 1 tri 771 750 728
126 1 tri 113 126 104
127 1 tri 80 60 71
128 1 tri 100 98 119
129 1 tri 144 173 149
130 1 tri 116 110 137
131 1 tri 36 45 60
132 1 tri 89 80 71
133 1 tri 93 94 122
134 1 tri 149 120 126
135 1 tri 191 218 231
136 1 tri 149 152 120
137 1 tri 122 137 110
138 1 tri 202 197 170
139 1 tri 230 223 196
140 1 tri 266 303 265
141 1 tri 217 184 185
142 1 tri 246 263 208
143 1 tri 119 98 127
144 1 tri 86 100 112
145 1 tri 147 125 146
146 1 tri 172 170 197
147 1 tri 138 112 147
148 1 tri 171 201 180
149 1 tri 228 230 197
150 1 tri 208 263 224
151 1 tri 289 292 255
152 1 tri 382 378 317
153 1 tri 378 433 405
154 1 tri 336 292 289
155 1 tri 382 317 323
156 1 tri 382 403 450
157 1 tri 473 521 448
158 1 tri 653 603 640
159 1 tri 537 573 548
160 1 tri 516 484 550
161 1 tri 489 516 549
162 1 tri 484 448 521
163 1 tri 352 347 391
164 1 tri 303 325 347
165 1 tri 537 513 500
166 1 tri 435 397 391
167 1 tri 628 644 661
168 1 tri 526 513 548
169 1 tri 222 188 220
170 1 tri 223 230 265
171 1 tri 352 329 309
172 1 tri 256 223 265
173 1 tri 329 291 286
174 1 tri 220 184 217
175 1 tri 265 303 309
176 1 tri 278 292 325
177 1 tri 318 283 281
178 1 tri 580 536 551
179 1 tri 385 431 422
180 1 tri 346 343 389
181 1 tri 404 458 409
182 1 tri 386 354 346
183 1 tri 487 507 462
184 1 tri 540 563 575
185 1 tri 491 452 457
186 1 tri 330 343 301
187 1 tri 466 506 525
188 1 tri 514 470 481
189 1 tri 496 449 458
190 1 tri 427 386 389
191 1 tri 426 467 425
192 1 tri 192 176 160
193 1 tri 599 575 615
194 1 tri 563 507 539
195 1 tri 376 385 341
196 1 tri 260 221 258
197 1 tri 404 409 363
198 1 tri 282 243 275
199 1 tri 481 431 449
200 1 tri 449 431 407
201 1 tri 316 358 328
202 1 tri 328 331 287
203 1 tri 37 29 20
204 1 tri 68 62 48
205 1 tri 319 327 280
206 1 tri 191 216 179
207 1 tri 297 248 290
208 1 tri 248 225 210
209 1 tri 116 137 145
210 1 tri 122 152 153
211 1 tri 114 87 96
212 1 tri 137 169 145
213 1 tri 184 153 152
214 1 tri 169 137 153
215 1 tri 203 168 179
216 1 tri 114 133 105
217 1 tri 51 44 62
218 1 tri 94 80 104
219 1 tri 93 68 94
220 1 tri 122 153 137
221 1 tri 198 182 225
222 1 tri 90 110 116
223 1 tri 37 40 29
224 1 tri 12 5 16
225 1 tri 56 66 55
226 1 tri 24 12 29
227 1 tri 128 114 96
228 1 tri 69 54 51
229 1 tri 96 87 69
230 1 tri 148 176 182
231 1 tri 74 91 101
232 1 tri 23 13 11
233 1 tri 39 56 55
234 1 tri 190 155 175
235 1 tri 210 225 182
236 1 tri 410 375 366
237 1 tri 219 227 259
238 1 tri 240 264 279
239 1 tri 227 240 276
240 1 tri 297 290 334
241 1 tri 358 366 328
242 1 tri 308 264 297
243 1 tri 304 298 345
244 1 tri 183 219 211
245 1 tri 294 342 340
246 1 tri 335 288 314
247 1 tri 455 406 447
248 1 tri 304 314 271
249 1 tri 22 31 42
250 1 tri 28 14 22
251 1 tri 159 123 131
252 1 tri 131 123 97
253 1 tri 299 322 342
254 1 tri 369 335 360
255 1 tri 316 353 358
256 1 tri 406 410 366
257 1 tri 50 63 75
258 1 tri 226 181 190
259 1 tri 99 78 67
260 1 tri 97 109 131
261 1 tri 294 340 300
262 1 tri 326 305 361
263 1 tri 136 106 130
264 1 tri 47 32 53
265 1 tri 239 277 305
266 1 tri 157 130 124
267 1 tri 270 235 296
268 1 tri 162 174 135
269 1 tri 162 136 186
270 1 tri 296 324 270
271 1 tri 207 174 162
272 1 tri 372 337 310
273 1 tri 367 306 324
274 1 tri 337 296 268
275 1 tri 195 157 193
276 1 tri 156 193 157
277 1 tri 247 234 199
278 1 tri 167 159 131
279 1 tri 607 610 571
280 1 tri 247 254 294
281 1 tri 373 369 408
282 1 tri 437 400 394
283 1 tri 284 344 310
284 1 tri 402 361 356
285 1 tri 377 344 326
286 1 tri 413 361 402
287 1 tri 393 351 396
288 1 tri 483 446 442
289 1 tri 402 356 393
290 1 tri 337 395 355
291 1 tri 418 367 399
292 1 tri 432 421 461
293 1 tri 600 605 570
294 1 tri 499 463 460
295 1 tri 463 414 460
296 1 tri 357 414 379
297 1 tri 535 509 505
298 1 tri 475 463 505
299 1 tri 608 556 577
300 1 tri 505 463 499
301 1 tri 490 499 460
302 1 tri 270 306 249
303 1 tri 544 533 499
304 1 tri 460 418 451
305 1 tri 519 486 517
306 1 tri 441 399 395
307 1 tri 557 515 529
308 1 tri 552 511 542
309 1 tri 480 483 442
310 1 tri 384 340 342
311 1 tri 428 436 396
312 1 tri 524 482 510
313 1 tri 534 530 574
314 1 tri 529 502 543
315 1 tri 402 393 442
316 1 tri 351 300 340
317 1 tri 437 482 445
318 1 tri 543 576 571
319 1 tri 480 436 468
320 1 tri 442 393 436
321 1 tri 394 425 437
322 1 tri 541 576 543
323 1 tri 316 276 315
324 1 tri 599 560 575
325 1 tri 348 385 390
326 1 tri 431 481 470
327 1 tri 527 477 478
328 1 tri 477 510 467
329 1 tri 437 467 482
330 1 tri 625 648 666
331 1 tri 558 512 538
332 1 tri 422 390 385
333 1 tri 532 524 562
334 1 tri 512 527 478
335 1 tri 510 527 553
336 1 tri 558 581 602
337 1 tri 630 622 589
338 1 tri 581 538 546
339 1 tri 656 622 630
340 1 tri 602 579 558
341 1 tri 846 803 833
342 1 tri 697 656 676
343 1 tri 860 852 825
344 1 tri 926 942 954
345 1 tri 900 893 860
346 1 tri 782 739 747
347 1 tri 1031 1012 1032
348 1 tri 1057 1045 1047
349 1 tri 792 775 756
350 1 tri 605 576 570
351 1 tri 679 673 710
352 1 tri 917 888 901
353 1 tri 639 600 632
354 1 tri 570 532 562
355 1 tri 713 680 679
356 1 tri 571 576 607
357 1 tri 705 671 708
358 1 tri 593 553 579
359 1 tri 746 710 742
360 1 tri 605 607 576
361 1 tri 663 618 638
362 1 tri 677 664 704
363 1 tri 629 598 601
364 1 tri 713 753 718
365 1 tri 775 805 797
366 1 tri 862 885 851
367 1 tri 677 652 634
368 1 tri 586 554 552
369 1 tri 617 619 654
370 1 tri 583 554 586
371 1 tri 664 634 629
372 1 tri 614 585 634
373 1 tri 790 799 767
374 1 tri 894 885 862
375 1 tri 828 817 842
376 1 tri 830 805 839
377 1 tri 796 761 770
378 1 tri 858 838 872
379 1 tri 763 775 797
380 1 tri 784 778 813
381 1 tri 792 826 805
382 1 tri 850 814 834
383 1 tri 830 839 862
384 1 tri 839 826 857
385 1 tri 879 904 894
386 1 tri 879 857 890
387 1 tri 945 935 919
388 1 tri 945 919 914
389 1 tri 859 881 848
390 1 tri 881 872 848
391 1 tri 966 954 942
392 1 tri 923 956 950
393 1 tri 954 979 969
394 1 tri 901 889 921
395 1 tri 999 980 984
396 1 tri 956 929 960
397 1 tri 995 968 975
398 1 tri 991 1014 1006
399 1 tri 974 992 964
400 1 tri 1007 1018 1002
401 1 tri 960 965 991
402 1 tri 1033 1025 1015
403 1 tri 984 991 1006
404 1 tri 983 1007 1002
405 1 tri 992 997 1015
406 1 tri 1061 1057 1063
407 1 tri 1039 1044 1028
408 1 tri 1057 1059 1063
409 1 tri 1057 1047 1059
410 1 tri 1059 1065 1063
411 1 tri 1064 1055 1062
412 1 tri 780 741 735
413 1 tri 1046 1038 1056
414 1 tri 995 987 968
415 1 tri 1031 1032 1047
416 1 tri 1005 988 1012
417 1 tri 962 987 974
418 1 tri 1015 1007 992
419 1 tri 1019 1001 1024
420 1 tri 944 949 978
421 1 tri 1010 1017 1029
422 1 tri 1017 1019 1035
423 1 tri 1029 1035 1042
424 1 tri 918 902 943
425 1 tri 833 803 779
426 1 tri 823 779 780
427 1 tri 940 912 911
428 1 tri 974 987 997
429 1 tri 975 944 978
430 1 tri 655 701 696
431 1 tri 528 481 496
432 1 tri 615 649 599
433 1 tri 656 648 622
434 1 tri 700 734 701
435 1 tri 902 899 933
436 1 tri 701 734 735
437 1 tri 902 933 943
438 1 tri 631 660 669
439 1 tri 731 729 751
440 1 tri 762 773 785
441 1 tri 752 774 734
442 1 tri 772 808 822
443 1 tri 906 944 938
444 1 tri 927 941 911
445 1 tri 752 734 723
446 1 tri 808 807 847
447 1 tri 957 927 947
448 1 tri 844 880 887
449 1 tri 897 871 892
450 1 tri 978 949 959
451 1 tri 959 924 940
452 1 tri 758 765 736
453 1 tri 781 749 777
454 1 tri 794 800 773
455 1 tri 837 877 845
456 1 tri 738 743 712
457 1 tri 800 794 818
458 1 tri 665 641 659
459 1 tri 582 604 611
460 1 tri 661 690 668
461 1 tri 777 768 802
462 1 tri 773 762 751
463 1 tri 687 691 670
464 1 tri 751 762 731
465 1 tri 764 793 768
466 1 tri 653 623 603
467 1 tri 596 613 572
468 1 tri 685 640 675
469 1 tri 603 584 640
470 1 tri 659 633 637
471 1 tri 620 613 651
472 1 tri 745 726 717
473 1 tri 716 729 706
474 1 tri 719 728 750
475 1 tri 685 721 730
476 1 tri 758 736 726
477 1 tri 812 788 809
478 1 tri 820 789 771
479 1 tri 745 776 758
480 1 tri 794 773 769
481 1 tri 812 835 798
482 1 tri 878 903 883
483 1 tri 973 998 976
484 1 tri 873 865 835
485 1 tri 806 793 785
486 1 tri 827 800 818
487 1 tri 865 841 835
488 1 tri 843 871 837
489 1 tri 880 877 911
490 1 tri 837 802 816
491 1 tri 947 972 957
492 1 tri 993 988 967
493 1 tri 1008 1004 1023
494 1 tri 931 948 898
495 1 tri 1013 1008 1028
496 1 tri 1004 1009 1023
497 1 tri 1059 1064 1065
498 1 tri 1038 1022 1041
499 1 tri 955 928 948
500 1 tri 913 892 883
501 1 tri 958 973 948
502 1 tri 934 931 907
503 1 tri 1030 1009 1022
504 1 tri 1004 990 982
505 1 tri 1053 1046 1060
506 1 tri 1039 1030 1046
507 1 tri 77 102 98
508 1 tri 102 127 98
509 1 tri 52 65 71
510 1 tri 58 77 81
511 1 tri 164 200 208
512 1 tri 134 127 102
513 1 tri 151 146 119
514 1 tri 125 147 112
515 1 tri 125 100 119
516 1 tri 81 98 100
517 1 tri 113 112 138
518 1 tri 89 71 86
519 1 tri 146 125 119
520 1 tri 112 100 125
521 1 tri 81 65 58
522 1 tri 52 34 46
523 1 tri 65 52 46
524 1 tri 71 60 52
525 1 tri 58 65 46
526 1 tri 81 100 86
527 1 tri 113 89 112
528 1 tri 71 65 86
529 1 tri 45 52 60
530 1 tri 30 36 48
531 1 tri 19 26 36
532 1 tri 26 45 36
533 1 tri 34 52 45
534 1 tri 19 36 30
535 1 tri 21 30 44
536 1 tri 15 19 30
537 1 tri 30 48 44
538 1 tri 36 60 48
539 1 tri 72 62 82
540 1 tri 48 60 68
541 1 tri 120 94 104
542 1 tri 68 60 80
543 1 tri 122 94 120
544 1 tri 68 80 94
545 1 tri 93 122 110
546 1 tri 120 152 122
547 1 tri 112 89 86
548 1 tri 104 80 89
549 1 tri 144 113 138
550 1 tri 104 89 113
551 1 tri 144 126 113
552 1 tri 120 104 126
553 1 tri 170 172 138
554 1 tri 172 197 196
555 1 tri 170 147 180
556 1 tri 170 138 147
557 1 tri 196 173 172
558 1 tri 144 138 172
559 1 tri 172 173 144
560 1 tri 185 184 152
561 1 tri 144 149 126
562 1 tri 173 185 149
563 1 tri 149 185 152
564 1 tri 257 252 285
565 1 tri 196 185 173
566 1 tri 223 256 217
567 1 tri 223 217 185
568 1 tri 256 291 252
569 1 tri 252 220 217
570 1 tri 188 169 153
571 1 tri 256 252 217
572 1 tri 364 339 401
573 1 tri 230 196 197
574 1 tri 223 185 196
575 1 tri 215 202 180
576 1 tri 237 278 266
577 1 tri 215 237 202
578 1 tri 266 265 230
579 1 tri 202 237 228
580 1 tri 321 269 317
581 1 tri 246 206 250
582 1 tri 269 238 224
583 1 tri 215 238 255
584 1 tri 215 201 238
585 1 tri 237 255 278
586 1 tri 237 215 255
587 1 tri 127 151 119
588 1 tri 171 180 147
589 1 tri 177 171 146
590 1 tri 201 215 180
591 1 tri 127 164 151
592 1 tri 224 201 177
593 1 tri 177 201 171
594 1 tri 224 238 201
595 1 tri 134 164 127
596 1 tri 177 146 151
597 1 tri 151 164 177
598 1 tri 165 206 200
599 1 tri 134 165 164
600 1 tri 208 200 246
601 1 tri 164 165 200
602 1 tri 177 208 224
603 1 tri 177 164 208
604 1 tri 323 246 302
605 1 tri 200 206 246
606 1 tri 311 374 302
607 1 tri 269 263 317
608 1 tri 269 224 263
609 1 tri 250 302 246
610 1 tri 250 311 302
611 1 tri 362 374 311
612 1 tri 336 289 350
613 1 tri 255 238 289
614 1 tri 383 370 336
615 1 tri 278 255 292
616 1 tri 289 321 350
617 1 tri 289 269 321
618 1 tri 370 325 336
619 1 tri 303 278 325
620 1 tri 383 336 350
621 1 tri 325 292 336
622 1 tri 433 378 382
623 1 tri 321 317 378
624 1 tri 263 323 317
625 1 tri 302 374 323
626 1 tri 419 374 362
627 1 tri 374 403 323
628 1 tri 450 489 433
629 1 tri 450 403 484
630 1 tri 382 323 403
631 1 tri 465 405 433
632 1 tri 405 350 378
633 1 tri 403 448 484
634 1 tri 374 419 448
635 1 tri 516 450 484
636 1 tri 433 382 450
637 1 tri 565 521 522
638 1 tri 521 550 484
639 1 tri 578 516 550
640 1 tri 489 450 516
641 1 tri 522 521 473
642 1 tri 584 603 550
643 1 tri 547 501 523
644 1 tri 434 383 405
645 1 tri 572 547 523
646 1 tri 501 465 523
647 1 tri 549 572 523
648 1 tri 573 604 582
649 1 tri 350 405 383
650 1 tri 433 489 465
651 1 tri 417 434 472
652 1 tri 405 465 434
653 1 tri 523 465 489
654 1 tri 501 472 465
655 1 tri 417 472 456
656 1 tri 434 465 472
657 1 tri 526 485 513
658 1 tri 508 491 457
659 1 tri 501 520 472
660 1 tri 520 537 500
661 1 tri 559 537 520
662 1 tri 500 472 520
663 1 tri 547 559 520
664 1 tri 548 513 537
665 1 tri 559 573 537
666 1 tri 551 536 508
667 1 tri 572 587 547
668 1 tri 595 604 573
669 1 tri 526 561 551
670 1 tri 569 525 555
671 1 tri 526 551 508
672 1 tri 616 611 633
673 1 tri 582 561 548
674 1 tri 582 611 590
675 1 tri 444 457 420
676 1 tri 401 339 371
677 1 tri 513 485 476
678 1 tri 508 457 485
679 1 tri 536 491 508
680 1 tri 536 506 491
681 1 tri 561 526 548
682 1 tri 508 485 526
683 1 tri 352 371 329
684 1 tri 457 452 401
685 1 tri 420 401 371
686 1 tri 332 359 380
687 1 tri 435 444 397
688 1 tri 457 401 420
689 1 tri 417 435 391
690 1 tri 420 371 397
691 1 tri 435 417 456
692 1 tri 391 347 370
693 1 tri 476 435 456
694 1 tri 476 485 444
695 1 tri 476 444 435
696 1 tri 485 457 444
697 1 tri 256 265 286
698 1 tri 230 228 266
699 1 tri 237 266 228
700 1 tri 278 303 266
701 1 tri 391 370 417
702 1 tri 347 325 370
703 1 tri 265 309 286
704 1 tri 303 347 309
705 1 tri 309 329 286
706 1 tri 371 339 329
707 1 tri 359 332 318
708 1 tri 285 252 291
709 1 tri 347 352 309
710 1 tri 397 371 352
711 1 tri 244 257 281
712 1 tri 364 320 339
713 1 tri 281 283 244
714 1 tri 401 411 364
715 1 tri 244 222 257
716 1 tri 291 339 285
717 1 tri 236 262 275
718 1 tri 236 203 216
719 1 tri 307 272 301
720 1 tri 178 191 158
721 1 tri 301 295 330
722 1 tri 272 231 261
723 1 tri 346 307 343
724 1 tri 272 295 301
725 1 tri 343 330 368
726 1 tri 295 283 332
727 1 tri 368 389 343
728 1 tri 330 295 332
729 1 tri 283 318 332
730 1 tri 281 285 320
731 1 tri 281 320 318
732 1 tri 285 339 320
733 1 tri 320 359 318
734 1 tri 438 493 471
735 1 tri 452 411 401
736 1 tri 359 320 364
737 1 tri 411 412 359
738 1 tri 416 389 368
739 1 tri 364 411 359
740 1 tri 452 491 506
741 1 tri 359 412 380
742 1 tri 411 452 466
743 1 tri 438 466 493
744 1 tri 412 411 466
745 1 tri 555 506 536
746 1 tri 466 452 506
747 1 tri 567 539 518
748 1 tri 471 440 416
749 1 tri 627 591 609
750 1 tri 525 506 555
751 1 tri 416 438 471
752 1 tri 466 525 493
753 1 tri 525 545 493
754 1 tri 539 507 487
755 1 tri 660 631 621
756 1 tri 518 493 545
757 1 tri 332 368 330
758 1 tri 380 416 368
759 1 tri 389 416 440
760 1 tri 380 412 438
761 1 tri 380 438 416
762 1 tri 412 466 438
763 1 tri 518 471 493
764 1 tri 518 487 471
765 1 tri 440 427 389
766 1 tri 496 507 540
767 1 tri 458 404 462
768 1 tri 354 386 404
769 1 tri 386 427 404
770 1 tri 487 518 539
771 1 tri 427 462 404
772 1 tri 427 440 487
773 1 tri 427 487 462
774 1 tri 440 471 487
775 1 tri 545 567 518
776 1 tri 606 615 575
777 1 tri 528 540 575
778 1 tri 481 449 496
779 1 tri 589 560 599
780 1 tri 514 546 495
781 1 tri 588 606 563
782 1 tri 606 575 563
783 1 tri 407 409 449
784 1 tri 363 365 327
785 1 tri 409 458 449
786 1 tri 462 507 458
787 1 tri 507 496 458
788 1 tri 540 528 496
789 1 tri 560 528 575
790 1 tri 560 514 528
791 1 tri 279 308 315
792 1 tri 334 365 376
793 1 tri 334 376 341
794 1 tri 407 431 376
795 1 tri 353 348 390
796 1 tri 376 431 385
797 1 tri 363 327 319
798 1 tri 290 253 280
799 1 tri 313 346 354
800 1 tri 307 301 343
801 1 tri 404 363 354
802 1 tri 409 407 365
803 1 tri 327 365 334
804 1 tri 363 409 365
805 1 tri 313 282 275
806 1 tri 280 253 232
807 1 tri 313 307 346
808 1 tri 275 262 307
809 1 tri 319 313 354
810 1 tri 275 307 313
811 1 tri 319 280 282
812 1 tri 327 334 290
813 1 tri 327 290 280
814 1 tri 334 341 297
815 1 tri 308 297 341
816 1 tri 264 248 297
817 1 tri 313 319 282
818 1 tri 354 363 319
819 1 tri 210 182 176
820 1 tri 219 259 251
821 1 tri 192 213 176
822 1 tri 248 264 225
823 1 tri 213 248 210
824 1 tri 253 290 248
825 1 tri 132 101 117
826 1 tri 101 132 129
827 1 tri 133 141 115
828 1 tri 160 176 141
829 1 tri 141 148 117
830 1 tri 141 176 148
831 1 tri 91 115 117
832 1 tri 141 117 115
833 1 tri 179 168 143
834 1 tri 160 141 133
835 1 tri 216 203 179
836 1 tri 160 133 168
837 1 tri 232 192 203
838 1 tri 213 210 176
839 1 tri 232 213 192
840 1 tri 253 248 213
841 1 tri 243 232 203
842 1 tri 253 213 232
843 1 tri 275 243 236
844 1 tri 282 280 243
845 1 tri 262 216 231
846 1 tri 262 236 216
847 1 tri 283 261 242
848 1 tri 272 262 231
849 1 tri 295 261 283
850 1 tri 295 272 261
851 1 tri 205 218 178
852 1 tri 261 231 218
853 1 tri 252 257 220
854 1 tri 244 242 205
855 1 tri 283 242 244
856 1 tri 261 218 242
857 1 tri 281 257 285
858 1 tri 222 220 257
859 1 tri 169 178 145
860 1 tri 169 188 205
861 1 tri 220 188 184
862 1 tri 222 205 188
863 1 tri 169 205 178
864 1 tri 222 244 205
865 1 tri 145 128 116
866 1 tri 158 179 143
867 1 tri 158 143 128
868 1 tri 168 133 143
869 1 tri 158 191 179
870 1 tri 178 218 191
871 1 tri 243 203 236
872 1 tri 192 168 203
873 1 tri 96 69 72
874 1 tri 54 73 56
875 1 tri 90 96 72
876 1 tri 116 128 96
877 1 tri 143 114 128
878 1 tri 143 133 114
879 1 tri 51 62 72
880 1 tri 44 48 62
881 1 tri 90 82 110
882 1 tri 62 68 82
883 1 tri 96 90 116
884 1 tri 72 82 90
885 1 tri 82 93 110
886 1 tri 82 68 93
887 1 tri 15 30 21
888 1 tri 20 21 33
889 1 tri 8 15 21
890 1 tri 20 33 37
891 1 tri 21 44 33
892 1 tri 8 21 20
893 1 tri 16 20 29
894 1 tri 7 8 20
895 1 tri 51 37 33
896 1 tri 40 39 24
897 1 tri 44 51 33
898 1 tri 72 69 51
899 1 tri 5 12 1
900 1 tri 7 20 16
901 1 tri 12 16 29
902 1 tri 5 7 16
903 1 tri 54 40 37
904 1 tri 73 87 105
905 1 tri 51 54 37
906 1 tri 69 87 73
907 1 tri 69 73 54
908 1 tri 88 115 91
909 1 tri 114 105 87
910 1 tri 133 115 105
911 1 tri 40 56 39
912 1 tri 73 105 88
913 1 tri 73 88 66
914 1 tri 105 115 88
915 1 tri 101 91 117
916 1 tri 66 88 91
917 1 tri 1 12 2
918 1 tri 13 3 11
919 1 tri 2 12 11
920 1 tri 23 24 39
921 1 tri 23 11 24
922 1 tri 54 56 40
923 1 tri 73 66 56
924 1 tri 2 11 3
925 1 tri 38 25 23
926 1 tri 25 10 13
927 1 tri 39 38 23
928 1 tri 22 41 28
929 1 tri 3 13 4
930 1 tri 23 25 13
931 1 tri 38 43 25
932 1 tri 55 74 57
933 1 tri 76 84 109
934 1 tri 38 57 43
935 1 tri 92 75 107
936 1 tri 85 79 103
937 1 tri 57 38 55
938 1 tri 140 118 150
939 1 tri 79 74 101
940 1 tri 39 55 38
941 1 tri 66 91 74
942 1 tri 63 57 79
943 1 tri 63 43 57
944 1 tri 57 74 79
945 1 tri 55 66 74
946 1 tri 148 132 117
947 1 tri 103 79 101
948 1 tri 182 161 148
949 1 tri 129 103 101
950 1 tri 154 161 189
951 1 tri 132 148 161
952 1 tri 129 154 150
953 1 tri 240 225 264
954 1 tri 161 198 189
955 1 tri 161 182 198
956 1 tri 198 227 189
957 1 tri 198 225 240
958 1 tri 276 240 279
959 1 tri 227 198 240
960 1 tri 227 276 259
961 1 tri 279 315 276
962 1 tri 258 251 293
963 1 tri 259 287 251
964 1 tri 293 287 331
965 1 tri 259 276 287
966 1 tri 287 293 251
967 1 tri 331 338 293
968 1 tri 161 154 132
969 1 tri 150 118 129
970 1 tri 183 154 189
971 1 tri 129 132 154
972 1 tri 154 183 150
973 1 tri 189 227 219
974 1 tri 211 219 251
975 1 tri 183 189 219
976 1 tri 183 175 150
977 1 tri 76 109 97
978 1 tri 254 209 229
979 1 tri 140 150 175
980 1 tri 258 221 211
981 1 tri 175 183 211
982 1 tri 251 258 211
983 1 tri 271 288 241
984 1 tri 338 298 293
985 1 tri 369 360 400
986 1 tri 298 304 260
987 1 tri 288 273 241
988 1 tri 260 226 221
989 1 tri 187 209 167
990 1 tri 260 271 226
991 1 tri 229 209 187
992 1 tri 226 271 241
993 1 tri 349 345 388
994 1 tri 155 142 121
995 1 tri 229 204 241
996 1 tri 175 155 140
997 1 tri 175 221 190
998 1 tri 155 181 142
999 1 tri 226 241 204
1000 1 tri 226 190 221
1001 1 tri 181 155 190
1002 1 tri 42 50 64
1003 1 tri 118 85 103
1004 1 tri 75 92 64
1005 1 tri 121 142 111
1006 1 tri 75 85 107
1007 1 tri 140 155 121
1008 1 tri 50 75 64
1009 1 tri 118 103 129
1010 1 tri 63 85 75
1011 1 tri 63 79 85
1012 1 tri 121 107 140
1013 1 tri 121 92 107
1014 1 tri 107 118 140
1015 1 tri 107 85 118
1016 1 tri 13 10 4
1017 1 tri 25 31 17
1018 1 tri 43 31 25
1019 1 tri 42 64 61
1020 1 tri 43 50 31
1021 1 tri 43 63 50
1022 1 tri 10 6 4
1023 1 tri 10 25 17
1024 1 tri 6 17 9
1025 1 tri 6 10 17
1026 1 tri 17 22 9
1027 1 tri 17 31 22
1028 1 tri 22 42 41
1029 1 tri 31 50 42
1030 1 tri 9 22 14
1031 1 tri 32 18 28
1032 1 tri 41 32 28
1033 1 tri 92 84 64
1034 1 tri 76 53 61
1035 1 tri 64 84 61
1036 1 tri 92 121 111
1037 1 tri 84 111 109
1038 1 tri 84 92 111
1039 1 tri 111 139 109
1040 1 tri 142 181 166
1041 1 tri 53 76 70
1042 1 tri 61 84 76
1043 1 tri 139 131 109
1044 1 tri 167 209 199
1045 1 tri 123 159 156
1046 1 tri 131 139 167
1047 1 tri 14 28 18
1048 1 tri 61 53 41
1049 1 tri 78 106 83
1050 1 tri 49 47 67
1051 1 tri 27 32 47
1052 1 tri 47 53 70
1053 1 tri 32 41 53
1054 1 tri 18 32 27
1055 1 tri 27 47 35
1056 1 tri 70 67 47
1057 1 tri 70 97 95
1058 1 tri 78 49 67
1059 1 tri 35 47 49
1060 1 tri 35 49 59
1061 1 tri 49 78 59
1062 1 tri 124 123 156
1063 1 tri 59 78 83
1064 1 tri 83 106 108
1065 1 tri 186 163 212
1066 1 tri 108 136 135
1067 1 tri 108 106 136
1068 1 tri 67 95 99
1069 1 tri 67 70 95
1070 1 tri 123 124 95
1071 1 tri 106 78 99
1072 1 tri 157 124 156
1073 1 tri 99 95 124
1074 1 tri 124 130 99
1075 1 tri 157 163 130
1076 1 tri 163 186 136
1077 1 tri 270 324 306
1078 1 tri 245 195 233
1079 1 tri 212 163 195
1080 1 tri 195 245 212
1081 1 tri 233 274 284
1082 1 tri 136 162 135
1083 1 tri 186 207 162
1084 1 tri 212 235 186
1085 1 tri 249 214 207
1086 1 tri 174 207 214
1087 1 tri 186 235 207
1088 1 tri 212 245 268
1089 1 tri 235 270 207
1090 1 tri 430 379 414
1091 1 tri 214 249 267
1092 1 tri 207 270 249
1093 1 tri 235 268 296
1094 1 tri 212 268 235
1095 1 tri 245 284 310
1096 1 tri 344 284 326
1097 1 tri 194 156 159
1098 1 tri 233 284 245
1099 1 tri 377 361 413
1100 1 tri 310 337 268
1101 1 tri 337 355 296
1102 1 tri 234 239 194
1103 1 tri 274 233 239
1104 1 tri 277 247 300
1105 1 tri 234 194 199
1106 1 tri 333 277 300
1107 1 tri 305 274 239
1108 1 tri 233 193 239
1109 1 tri 233 195 193
1110 1 tri 193 194 239
1111 1 tri 193 156 194
1112 1 tri 247 199 209
1113 1 tri 194 159 199
1114 1 tri 277 234 247
1115 1 tri 277 239 234
1116 1 tri 142 166 139
1117 1 tri 229 241 273
1118 1 tri 166 187 139
1119 1 tri 199 159 167
1120 1 tri 139 187 167
1121 1 tri 166 204 187
1122 1 tri 181 204 166
1123 1 tri 181 226 204
1124 1 tri 254 229 273
1125 1 tri 187 204 229
1126 1 tri 299 294 254
1127 1 tri 247 209 254
1128 1 tri 247 294 300
1129 1 tri 254 273 299
1130 1 tri 333 305 277
1131 1 tri 356 361 305
1132 1 tri 356 333 393
1133 1 tri 356 305 333
1134 1 tri 387 351 340
1135 1 tri 393 333 351
1136 1 tri 408 445 453
1137 1 tri 396 351 387
1138 1 tri 428 396 387
1139 1 tri 436 393 396
1140 1 tri 532 541 498
1141 1 tri 468 436 428
1142 1 tri 461 421 454
1143 1 tri 392 344 377
1144 1 tri 424 372 392
1145 1 tri 392 421 432
1146 1 tri 413 446 454
1147 1 tri 402 442 446
1148 1 tri 245 310 268
1149 1 tri 344 392 372
1150 1 tri 274 326 284
1151 1 tri 274 305 326
1152 1 tri 361 377 326
1153 1 tri 421 392 377
1154 1 tri 446 413 402
1155 1 tri 421 377 413
1156 1 tri 344 372 310
1157 1 tri 355 324 296
1158 1 tri 372 395 337
1159 1 tri 399 367 355
1160 1 tri 432 424 392
1161 1 tri 461 469 432
1162 1 tri 249 306 267
1163 1 tri 367 418 414
1164 1 tri 267 306 312
1165 1 tri 414 357 367
1166 1 tri 312 306 357
1167 1 tri 306 367 357
1168 1 tri 324 355 367
1169 1 tri 312 357 379
1170 1 tri 460 414 418
1171 1 tri 463 475 430
1172 1 tri 463 430 414
1173 1 tri 439 395 424
1174 1 tri 399 355 395
1175 1 tri 372 424 395
1176 1 tri 432 469 424
1177 1 tri 469 474 424
1178 1 tri 479 486 441
1179 1 tri 479 441 439
1180 1 tri 451 418 399
1181 1 tri 479 474 511
1182 1 tri 439 424 474
1183 1 tri 474 479 439
1184 1 tri 486 490 451
1185 1 tri 517 486 479
1186 1 tri 517 554 519
1187 1 tri 486 451 441
1188 1 tri 490 460 451
1189 1 tri 519 544 490
1190 1 tri 556 535 505
1191 1 tri 533 505 499
1192 1 tri 509 475 505
1193 1 tri 577 533 544
1194 1 tri 556 505 533
1195 1 tri 583 544 554
1196 1 tri 583 577 544
1197 1 tri 469 504 474
1198 1 tri 552 585 586
1199 1 tri 544 519 554
1200 1 tri 490 486 519
1201 1 tri 564 542 531
1202 1 tri 585 614 586
1203 1 tri 517 552 554
1204 1 tri 542 564 585
1205 1 tri 564 531 568
1206 1 tri 504 469 497
1207 1 tri 531 534 568
1208 1 tri 530 483 515
1209 1 tri 598 564 568
1210 1 tri 598 585 564
1211 1 tri 492 497 454
1212 1 tri 497 469 461
1213 1 tri 531 497 534
1214 1 tri 454 446 492
1215 1 tri 454 497 461
1216 1 tri 492 534 497
1217 1 tri 542 504 531
1218 1 tri 542 511 504
1219 1 tri 503 541 543
1220 1 tri 480 442 436
1221 1 tri 502 480 468
1222 1 tri 483 530 492
1223 1 tri 529 515 480
1224 1 tri 492 446 483
1225 1 tri 480 502 529
1226 1 tri 464 428 423
1227 1 tri 480 515 483
1228 1 tri 529 571 557
1229 1 tri 557 530 515
1230 1 tri 534 492 530
1231 1 tri 645 679 680
1232 1 tri 592 574 557
1233 1 tri 576 541 570
1234 1 tri 482 467 510
1235 1 tri 459 453 498
1236 1 tri 532 570 541
1237 1 tri 529 543 571
1238 1 tri 502 464 503
1239 1 tri 524 510 553
1240 1 tri 467 426 477
1241 1 tri 562 524 553
1242 1 tri 532 488 524
1243 1 tri 593 562 553
1244 1 tri 600 570 562
1245 1 tri 453 445 488
1246 1 tri 423 459 464
1247 1 tri 498 453 488
1248 1 tri 384 423 387
1249 1 tri 488 482 524
1250 1 tri 488 445 482
1251 1 tri 503 459 498
1252 1 tri 384 387 340
1253 1 tri 468 464 502
1254 1 tri 468 428 464
1255 1 tri 532 498 488
1256 1 tri 541 503 498
1257 1 tri 502 503 543
1258 1 tri 464 459 503
1259 1 tri 373 408 415
1260 1 tri 400 445 408
1261 1 tri 322 369 373
1262 1 tri 408 453 415
1263 1 tri 459 423 415
1264 1 tri 428 387 423
1265 1 tri 322 299 273
1266 1 tri 342 294 299
1267 1 tri 288 335 322
1268 1 tri 400 408 369
1269 1 tri 423 384 415
1270 1 tri 342 322 373
1271 1 tri 373 384 342
1272 1 tri 373 415 384
1273 1 tri 260 304 271
1274 1 tri 260 258 298
1275 1 tri 271 314 288
1276 1 tri 304 345 349
1277 1 tri 349 360 314
1278 1 tri 369 322 335
1279 1 tri 360 349 394
1280 1 tri 314 304 349
1281 1 tri 400 360 394
1282 1 tri 335 314 360
1283 1 tri 349 388 394
1284 1 tri 375 338 331
1285 1 tri 400 437 445
1286 1 tri 425 467 437
1287 1 tri 394 388 425
1288 1 tri 381 338 375
1289 1 tri 381 345 338
1290 1 tri 426 388 381
1291 1 tri 388 426 425
1292 1 tri 429 477 426
1293 1 tri 293 298 258
1294 1 tri 338 345 298
1295 1 tri 331 328 366
1296 1 tri 287 276 316
1297 1 tri 366 375 331
1298 1 tri 375 429 381
1299 1 tri 410 429 375
1300 1 tri 388 345 381
1301 1 tri 385 348 341
1302 1 tri 279 264 308
1303 1 tri 353 316 315
1304 1 tri 328 287 316
1305 1 tri 308 348 315
1306 1 tri 308 341 348
1307 1 tri 348 353 315
1308 1 tri 353 398 358
1309 1 tri 390 398 353
1310 1 tri 406 366 358
1311 1 tri 447 398 443
1312 1 tri 406 358 398
1313 1 tri 470 443 422
1314 1 tri 443 390 422
1315 1 tri 390 443 398
1316 1 tri 422 431 470
1317 1 tri 398 447 406
1318 1 tri 443 470 495
1319 1 tri 528 514 481
1320 1 tri 546 589 581
1321 1 tri 381 429 426
1322 1 tri 410 406 455
1323 1 tri 410 455 429
1324 1 tri 494 538 512
1325 1 tri 455 478 429
1326 1 tri 558 538 581
1327 1 tri 429 478 477
1328 1 tri 455 447 494
1329 1 tri 527 512 558
1330 1 tri 478 455 512
1331 1 tri 553 527 579
1332 1 tri 510 477 527
1333 1 tri 622 602 581
1334 1 tri 579 527 558
1335 1 tri 455 494 512
1336 1 tri 447 443 495
1337 1 tri 494 495 538
1338 1 tri 494 447 495
1339 1 tri 589 546 560
1340 1 tri 495 470 514
1341 1 tri 495 546 538
1342 1 tri 514 560 546
1343 1 tri 648 602 622
1344 1 tri 648 625 602
1345 1 tri 600 593 632
1346 1 tri 579 602 625
1347 1 tri 676 656 630
1348 1 tri 824 803 846
1349 1 tri 632 593 625
1350 1 tri 600 562 593
1351 1 tri 666 632 625
1352 1 tri 671 639 632
1353 1 tri 699 666 648
1354 1 tri 671 632 666
1355 1 tri 747 739 699
1356 1 tri 648 656 681
1357 1 tri 697 720 681
1358 1 tri 787 801 834
1359 1 tri 787 742 760
1360 1 tri 671 666 708
1361 1 tri 599 649 630
1362 1 tri 759 803 786
1363 1 tri 656 697 681
1364 1 tri 676 696 727
1365 1 tri 681 720 699
1366 1 tri 779 741 780
1367 1 tri 697 727 720
1368 1 tri 697 676 727
1369 1 tri 759 747 720
1370 1 tri 739 708 699
1371 1 tri 727 759 720
1372 1 tri 727 741 779
1373 1 tri 823 833 779
1374 1 tri 803 759 779
1375 1 tri 824 786 803
1376 1 tri 747 759 786
1377 1 tri 860 825 824
1378 1 tri 869 860 824
1379 1 tri 868 902 876
1380 1 tri 876 846 833
1381 1 tri 895 846 876
1382 1 tri 869 824 846
1383 1 tri 824 825 782
1384 1 tri 852 834 801
1385 1 tri 708 739 760
1386 1 tri 917 926 946
1387 1 tri 895 900 869
1388 1 tri 889 923 921
1389 1 tri 786 782 747
1390 1 tri 866 834 852
1391 1 tri 710 705 742
1392 1 tri 739 782 760
1393 1 tri 824 782 786
1394 1 tri 825 852 801
1395 1 tri 782 801 760
1396 1 tri 782 825 801
1397 1 tri 742 787 778
1398 1 tri 760 801 787
1399 1 tri 819 813 849
1400 1 tri 778 787 814
1401 1 tri 778 814 813
1402 1 tri 787 834 814
1403 1 tri 904 879 890
1404 1 tri 813 814 850
1405 1 tri 888 850 866
1406 1 tri 849 813 850
1407 1 tri 834 866 850
1408 1 tri 921 950 942
1409 1 tri 851 830 862
1410 1 tri 805 826 839
1411 1 tri 819 854 826
1412 1 tri 849 882 884
1413 1 tri 854 857 826
1414 1 tri 854 884 890
1415 1 tri 737 756 775
1416 1 tri 756 753 792
1417 1 tri 792 784 819
1418 1 tri 753 746 784
1419 1 tri 775 792 805
1420 1 tri 753 784 792
1421 1 tri 792 819 826
1422 1 tri 784 813 819
1423 1 tri 713 679 710
1424 1 tri 713 718 680
1425 1 tri 645 680 638
1426 1 tri 703 724 683
1427 1 tri 763 737 775
1428 1 tri 718 753 756
1429 1 tri 705 673 671
1430 1 tri 642 607 605
1431 1 tri 760 742 708
1432 1 tri 710 673 705
1433 1 tri 746 742 778
1434 1 tri 705 708 742
1435 1 tri 784 746 778
1436 1 tri 753 713 746
1437 1 tri 639 605 600
1438 1 tri 673 679 642
1439 1 tri 673 639 671
1440 1 tri 673 642 639
1441 1 tri 639 642 605
1442 1 tri 679 645 642
1443 1 tri 618 592 638
1444 1 tri 557 571 592
1445 1 tri 571 610 592
1446 1 tri 607 642 645
1447 1 tri 568 574 601
1448 1 tri 592 610 638
1449 1 tri 610 645 638
1450 1 tri 610 607 645
1451 1 tri 534 574 568
1452 1 tri 530 557 574
1453 1 tri 568 601 598
1454 1 tri 574 592 618
1455 1 tri 680 663 638
1456 1 tri 601 574 618
1457 1 tri 683 646 663
1458 1 tri 601 618 646
1459 1 tri 683 663 703
1460 1 tri 646 618 663
1461 1 tri 680 703 663
1462 1 tri 737 763 724
1463 1 tri 704 683 724
1464 1 tri 704 664 683
1465 1 tri 763 754 724
1466 1 tri 732 761 725
1467 1 tri 693 677 711
1468 1 tri 733 767 748
1469 1 tri 542 585 552
1470 1 tri 598 634 585
1471 1 tri 683 664 646
1472 1 tri 634 598 629
1473 1 tri 646 664 629
1474 1 tri 704 711 677
1475 1 tri 664 677 634
1476 1 tri 693 686 654
1477 1 tri 608 577 617
1478 1 tri 556 533 577
1479 1 tri 619 586 614
1480 1 tri 619 583 586
1481 1 tri 635 608 650
1482 1 tri 583 619 617
1483 1 tri 535 556 566
1484 1 tri 566 556 597
1485 1 tri 650 608 617
1486 1 tri 597 556 608
1487 1 tri 597 608 635
1488 1 tri 635 650 678
1489 1 tri 725 686 693
1490 1 tri 678 650 686
1491 1 tri 678 686 722
1492 1 tri 693 652 677
1493 1 tri 619 614 652
1494 1 tri 650 654 686
1495 1 tri 650 617 654
1496 1 tri 652 693 654
1497 1 tri 732 748 770
1498 1 tri 711 732 693
1499 1 tri 761 755 725
1500 1 tri 704 733 711
1501 1 tri 829 858 853
1502 1 tri 732 770 761
1503 1 tri 748 767 783
1504 1 tri 748 783 770
1505 1 tri 817 790 797
1506 1 tri 693 732 725
1507 1 tri 711 748 732
1508 1 tri 821 791 796
1509 1 tri 755 761 791
1510 1 tri 761 796 791
1511 1 tri 770 783 804
1512 1 tri 804 829 796
1513 1 tri 770 804 796
1514 1 tri 783 799 815
1515 1 tri 821 829 853
1516 1 tri 821 796 829
1517 1 tri 829 838 858
1518 1 tri 783 767 799
1519 1 tri 875 842 851
1520 1 tri 838 848 872
1521 1 tri 815 804 783
1522 1 tri 875 859 842
1523 1 tri 875 891 859
1524 1 tri 711 733 748
1525 1 tri 704 724 733
1526 1 tri 848 815 828
1527 1 tri 767 754 790
1528 1 tri 828 815 799
1529 1 tri 838 804 815
1530 1 tri 848 828 859
1531 1 tri 799 790 817
1532 1 tri 718 737 703
1533 1 tri 718 756 737
1534 1 tri 724 754 733
1535 1 tri 763 790 754
1536 1 tri 797 790 763
1537 1 tri 797 830 817
1538 1 tri 842 817 851
1539 1 tri 828 799 817
1540 1 tri 817 830 851
1541 1 tri 797 805 830
1542 1 tri 885 875 851
1543 1 tri 859 828 842
1544 1 tri 910 896 885
1545 1 tri 891 881 859
1546 1 tri 937 909 917
1547 1 tri 849 850 882
1548 1 tri 850 888 882
1549 1 tri 866 901 888
1550 1 tri 917 901 926
1551 1 tri 866 852 889
1552 1 tri 937 917 946
1553 1 tri 882 888 917
1554 1 tri 901 921 926
1555 1 tri 980 971 956
1556 1 tri 926 954 946
1557 1 tri 971 950 956
1558 1 tri 963 937 946
1559 1 tri 930 945 914
1560 1 tri 930 909 937
1561 1 tri 969 963 946
1562 1 tri 890 884 914
1563 1 tri 854 849 884
1564 1 tri 930 914 909
1565 1 tri 884 882 909
1566 1 tri 890 914 919
1567 1 tri 884 909 914
1568 1 tri 952 930 937
1569 1 tri 952 945 930
1570 1 tri 904 890 919
1571 1 tri 857 854 890
1572 1 tri 920 894 904
1573 1 tri 920 910 894
1574 1 tri 885 894 910
1575 1 tri 896 891 875
1576 1 tri 885 896 875
1577 1 tri 935 925 904
1578 1 tri 904 925 920
1579 1 tri 954 969 946
1580 1 tri 966 979 954
1581 1 tri 956 984 980
1582 1 tri 985 966 971
1583 1 tri 866 889 901
1584 1 tri 852 860 893
1585 1 tri 926 921 942
1586 1 tri 889 893 923
1587 1 tri 979 966 985
1588 1 tri 942 950 966
1589 1 tri 985 971 994
1590 1 tri 966 950 971
1591 1 tri 852 893 889
1592 1 tri 860 869 900
1593 1 tri 965 983 991
1594 1 tri 929 923 893
1595 1 tri 921 923 950
1596 1 tri 893 900 929
1597 1 tri 932 960 929
1598 1 tri 956 923 929
1599 1 tri 956 960 984
1600 1 tri 929 900 932
1601 1 tri 1006 999 984
1602 1 tri 994 971 980
1603 1 tri 994 980 999
1604 1 tri 1007 983 992
1605 1 tri 991 984 960
1606 1 tri 1002 991 983
1607 1 tri 1002 1014 991
1608 1 tri 1015 1025 1007
1609 1 tri 895 932 900
1610 1 tri 895 918 939
1611 1 tri 895 939 932
1612 1 tri 964 983 965
1613 1 tri 943 964 939
1614 1 tri 943 974 964
1615 1 tri 932 965 960
1616 1 tri 939 964 965
1617 1 tri 833 868 876
1618 1 tri 868 823 861
1619 1 tri 939 918 943
1620 1 tri 895 876 918
1621 1 tri 933 962 943
1622 1 tri 997 992 974
1623 1 tri 1021 1015 997
1624 1 tri 987 1010 997
1625 1 tri 1029 1042 1036
1626 1 tri 1007 1025 1018
1627 1 tri 1015 1021 1033
1628 1 tri 1029 1036 1021
1629 1 tri 1021 1036 1033
1630 1 tri 1035 1037 1048
1631 1 tri 1024 1043 1037
1632 1 tri 1024 1034 1043
1633 1 tri 1037 1043 1050
1634 1 tri 1050 1043 1054
1635 1 tri 1049 1058 1054
1636 1 tri 1052 1040 1045
1637 1 tri 1052 1049 1040
1638 1 tri 1059 1055 1064
1639 1 tri 1055 1047 1044
1640 1 tri 1062 1055 1053
1641 1 tri 1059 1047 1055
1642 1 tri 1053 1060 1062
1643 1 tri 1045 1031 1047
1644 1 tri 1012 993 1013
1645 1 tri 1030 1039 1023
1646 1 tri 1053 1055 1044
1647 1 tri 1028 1044 1032
1648 1 tri 1039 1053 1044
1649 1 tri 1043 1034 1049
1650 1 tri 1003 1001 978
1651 1 tri 1034 1040 1049
1652 1 tri 1034 1016 1026
1653 1 tri 1052 1045 1057
1654 1 tri 1040 1026 1045
1655 1 tri 1058 1052 1061
1656 1 tri 1058 1049 1052
1657 1 tri 1026 1005 1031
1658 1 tri 1016 1024 1003
1659 1 tri 1005 1012 1031
1660 1 tri 988 993 1012
1661 1 tri 1012 1013 1032
1662 1 tri 993 990 1013
1663 1 tri 957 972 990
1664 1 tri 927 922 947
1665 1 tri 990 1008 1013
1666 1 tri 990 1004 1008
1667 1 tri 1013 1028 1032
1668 1 tri 1023 1039 1028
1669 1 tri 913 936 922
1670 1 tri 982 1009 1004
1671 1 tri 961 982 972
1672 1 tri 982 990 972
1673 1 tri 947 961 972
1674 1 tri 981 1009 982
1675 1 tri 970 941 957
1676 1 tri 897 877 871
1677 1 tri 993 970 990
1678 1 tri 941 927 957
1679 1 tri 1003 1024 1001
1680 1 tri 940 941 967
1681 1 tri 967 970 993
1682 1 tri 967 941 970
1683 1 tri 924 949 908
1684 1 tri 944 906 908
1685 1 tri 988 959 967
1686 1 tri 988 1005 986
1687 1 tri 986 978 959
1688 1 tri 975 968 944
1689 1 tri 988 986 959
1690 1 tri 1016 1034 1024
1691 1 tri 986 1003 978
1692 1 tri 986 1005 1016
1693 1 tri 986 1016 1003
1694 1 tri 1005 1026 1016
1695 1 tri 1045 1026 1031
1696 1 tri 1040 1034 1026
1697 1 tri 1021 1010 1029
1698 1 tri 1021 997 1010
1699 1 tri 1029 1017 1035
1700 1 tri 1010 987 995
1701 1 tri 1035 1019 1037
1702 1 tri 1017 1001 1019
1703 1 tri 943 962 974
1704 1 tri 933 899 938
1705 1 tri 962 968 987
1706 1 tri 962 933 938
1707 1 tri 1001 975 978
1708 1 tri 1001 995 975
1709 1 tri 1017 995 1001
1710 1 tri 1017 1010 995
1711 1 tri 867 908 906
1712 1 tri 938 968 962
1713 1 tri 861 906 899
1714 1 tri 867 887 908
1715 1 tri 906 938 899
1716 1 tri 944 968 938
1717 1 tri 924 887 912
1718 1 tri 847 844 887
1719 1 tri 944 908 949
1720 1 tri 906 861 867
1721 1 tri 949 924 959
1722 1 tri 908 887 924
1723 1 tri 844 807 811
1724 1 tri 847 822 808
1725 1 tri 780 772 822
1726 1 tri 774 752 781
1727 1 tri 877 880 845
1728 1 tri 847 807 844
1729 1 tri 822 823 780
1730 1 tri 861 899 868
1731 1 tri 822 861 823
1732 1 tri 822 847 867
1733 1 tri 822 867 861
1734 1 tri 847 887 867
1735 1 tri 823 868 833
1736 1 tri 899 902 868
1737 1 tri 649 696 676
1738 1 tri 701 735 696
1739 1 tri 649 655 696
1740 1 tri 669 700 701
1741 1 tri 735 772 780
1742 1 tri 735 734 772
1743 1 tri 539 567 588
1744 1 tri 631 655 606
1745 1 tri 621 631 588
1746 1 tri 669 655 631
1747 1 tri 630 649 676
1748 1 tri 655 669 701
1749 1 tri 615 655 649
1750 1 tri 615 606 655
1751 1 tri 591 621 567
1752 1 tri 588 563 539
1753 1 tri 621 588 567
1754 1 tri 631 606 588
1755 1 tri 545 591 567
1756 1 tri 660 700 669
1757 1 tri 627 658 621
1758 1 tri 658 692 688
1759 1 tri 700 723 734
1760 1 tri 700 660 688
1761 1 tri 715 749 723
1762 1 tri 807 808 774
1763 1 tri 772 774 808
1764 1 tri 772 734 774
1765 1 tri 690 692 668
1766 1 tri 712 715 692
1767 1 tri 688 715 723
1768 1 tri 764 738 740
1769 1 tri 781 807 774
1770 1 tri 752 723 749
1771 1 tri 569 591 545
1772 1 tri 627 621 591
1773 1 tri 569 609 591
1774 1 tri 658 660 621
1775 1 tri 643 658 627
1776 1 tri 668 692 658
1777 1 tri 658 688 660
1778 1 tri 692 715 688
1779 1 tri 525 569 545
1780 1 tri 612 580 590
1781 1 tri 580 594 555
1782 1 tri 643 627 609
1783 1 tri 594 628 609
1784 1 tri 668 658 643
1785 1 tri 670 691 661
1786 1 tri 668 643 661
1787 1 tri 714 712 690
1788 1 tri 712 692 690
1789 1 tri 714 738 712
1790 1 tri 740 762 764
1791 1 tri 715 743 749
1792 1 tri 715 712 743
1793 1 tri 743 768 777
1794 1 tri 743 738 768
1795 1 tri 807 781 811
1796 1 tri 768 793 802
1797 1 tri 793 816 802
1798 1 tri 897 922 927
1799 1 tri 743 777 749
1800 1 tri 811 845 844
1801 1 tri 749 781 752
1802 1 tri 777 802 811
1803 1 tri 777 811 781
1804 1 tri 802 837 811
1805 1 tri 811 837 845
1806 1 tri 897 892 922
1807 1 tri 887 880 912
1808 1 tri 844 845 880
1809 1 tri 940 911 941
1810 1 tri 912 880 911
1811 1 tri 959 940 967
1812 1 tri 924 912 940
1813 1 tri 816 843 837
1814 1 tri 816 806 836
1815 1 tri 837 871 877
1816 1 tri 843 864 871
1817 1 tri 836 864 843
1818 1 tri 864 883 892
1819 1 tri 911 897 927
1820 1 tri 911 877 897
1821 1 tri 764 762 785
1822 1 tri 740 731 762
1823 1 tri 793 764 785
1824 1 tri 768 738 764
1825 1 tri 744 769 751
1826 1 tri 765 788 798
1827 1 tri 707 716 695
1828 1 tri 736 744 716
1829 1 tri 765 744 736
1830 1 tri 751 729 744
1831 1 tri 744 765 769
1832 1 tri 758 788 765
1833 1 tri 651 674 647
1834 1 tri 702 707 684
1835 1 tri 682 706 687
1836 1 tri 695 716 706
1837 1 tri 684 707 695
1838 1 tri 726 736 707
1839 1 tri 659 682 665
1840 1 tri 706 729 709
1841 1 tri 731 714 709
1842 1 tri 690 661 691
1843 1 tri 740 714 731
1844 1 tri 691 687 709
1845 1 tri 709 714 691
1846 1 tri 740 738 714
1847 1 tri 633 641 616
1848 1 tri 665 670 644
1849 1 tri 665 644 641
1850 1 tri 661 643 628
1851 1 tri 644 670 661
1852 1 tri 665 687 670
1853 1 tri 536 580 555
1854 1 tri 551 561 590
1855 1 tri 569 594 609
1856 1 tri 580 612 594
1857 1 tri 644 612 641
1858 1 tri 644 628 612
1859 1 tri 609 628 643
1860 1 tri 594 612 628
1861 1 tri 548 573 582
1862 1 tri 559 587 595
1863 1 tri 551 590 580
1864 1 tri 561 582 590
1865 1 tri 612 616 641
1866 1 tri 590 611 616
1867 1 tri 641 633 659
1868 1 tri 611 604 637
1869 1 tri 657 667 637
1870 1 tri 633 611 637
1871 1 tri 695 667 684
1872 1 tri 659 637 667
1873 1 tri 665 682 687
1874 1 tri 659 667 682
1875 1 tri 587 572 613
1876 1 tri 572 549 596
1877 1 tri 657 626 647
1878 1 tri 637 604 626
1879 1 tri 620 651 647
1880 1 tri 613 636 651
1881 1 tri 578 596 549
1882 1 tri 613 620 587
1883 1 tri 595 587 620
1884 1 tri 559 547 587
1885 1 tri 626 595 620
1886 1 tri 573 559 595
1887 1 tri 624 640 584
1888 1 tri 516 578 549
1889 1 tri 550 603 578
1890 1 tri 565 584 521
1891 1 tri 565 624 584
1892 1 tri 603 623 578
1893 1 tri 623 636 596
1894 1 tri 636 623 662
1895 1 tri 596 578 623
1896 1 tri 672 636 662
1897 1 tri 613 596 636
1898 1 tri 694 653 685
1899 1 tri 662 623 653
1900 1 tri 717 726 702
1901 1 tri 651 636 672
1902 1 tri 653 694 662
1903 1 tri 685 730 694
1904 1 tri 662 698 672
1905 1 tri 694 728 698
1906 1 tri 674 657 647
1907 1 tri 684 667 657
1908 1 tri 672 689 651
1909 1 tri 702 726 707
1910 1 tri 651 689 674
1911 1 tri 672 698 689
1912 1 tri 689 702 674
1913 1 tri 689 717 702
1914 1 tri 698 719 689
1915 1 tri 745 758 726
1916 1 tri 719 757 717
1917 1 tri 757 776 745
1918 1 tri 717 757 745
1919 1 tri 916 870 915
1920 1 tri 757 719 750
1921 1 tri 717 689 719
1922 1 tri 730 721 766
1923 1 tri 771 730 766
1924 1 tri 728 694 730
1925 1 tri 810 771 766
1926 1 tri 810 820 771
1927 1 tri 750 789 757
1928 1 tri 750 771 789
1929 1 tri 870 820 863
1930 1 tri 863 820 810
1931 1 tri 870 831 820
1932 1 tri 832 795 831
1933 1 tri 789 820 831
1934 1 tri 870 863 915
1935 1 tri 886 840 856
1936 1 tri 831 870 874
1937 1 tri 809 856 840
1938 1 tri 886 905 907
1939 1 tri 788 776 809
1940 1 tri 874 905 856
1941 1 tri 905 886 856
1942 1 tri 907 898 873
1943 1 tri 758 776 788
1944 1 tri 757 789 795
1945 1 tri 757 795 776
1946 1 tri 789 831 795
1947 1 tri 812 809 840
1948 1 tri 776 795 809
1949 1 tri 809 832 856
1950 1 tri 809 795 832
1951 1 tri 765 798 769
1952 1 tri 818 841 827
1953 1 tri 818 798 835
1954 1 tri 794 769 798
1955 1 tri 835 812 840
1956 1 tri 798 788 812
1957 1 tri 827 806 800
1958 1 tri 785 773 800
1959 1 tri 793 806 816
1960 1 tri 785 800 806
1961 1 tri 798 818 794
1962 1 tri 835 841 818
1963 1 tri 855 836 827
1964 1 tri 836 806 827
1965 1 tri 841 855 827
1966 1 tri 843 816 836
1967 1 tri 855 864 836
1968 1 tri 892 871 864
1969 1 tri 841 878 855
1970 1 tri 913 922 892
1971 1 tri 865 878 841
1972 1 tri 883 864 855
1973 1 tri 840 873 835
1974 1 tri 936 928 955
1975 1 tri 886 873 840
1976 1 tri 886 907 873
1977 1 tri 855 878 883
1978 1 tri 898 907 931
1979 1 tri 865 898 878
1980 1 tri 898 948 928
1981 1 tri 955 948 976
1982 1 tri 928 903 898
1983 1 tri 981 955 976
1984 1 tri 936 913 928
1985 1 tri 903 913 883
1986 1 tri 903 928 913
1987 1 tri 961 936 955
1988 1 tri 947 922 936
1989 1 tri 936 961 947
1990 1 tri 955 981 961
1991 1 tri 961 981 982
1992 1 tri 976 1000 981
1993 1 tri 1009 1000 1022
1994 1 tri 1009 981 1000
1995 1 tri 1046 1030 1038
1996 1 tri 1023 1009 1030
1997 1 tri 1046 1056 1060
1998 1 tri 1022 998 1020
1999 1 tri 1000 976 998
2000 1 tri 1030 1022 1038
2001 1 tri 1000 998 1022
2002 1 tri 1038 1041 1051
2003 1 tri 1038 1051 1056
2004 1 tri 934 977 958
2005 1 tri 1020 998 996
2006 1 tri 1027 1020 996
2007 1 tri 1041 1022 1020
2008 1 tri 1020 1027 1041
2009 1 tri 878 898 903
2010 1 tri 865 873 898
2011 1 tri 934 958 931
2012 1 tri 958 948 931
2013 1 tri 905 951 934
2014 1 tri 996 998 973
2015 1 tri 948 973 976
2016 1 tri 958 996 973
2017 1 tri 953 951 916
2018 1 tri 951 977 934
2019 1 tri 905 934 907
2020 1 tri 905 916 951
2021 1 tri 915 953 916
2022 1 tri 977 996 958
2023 1 tri 977 951 989
2024 1 tri 953 989 951
2025 1 tri 989 1011 977
2026 1 tri 996 1011 1027
2027 1 tri 996 977 1011
2028 2 tri 1644 1645 1606
2029 2 tri 1146 1191 1155
2030 2 tri 1237 1206 1235
2031 2 tri 1173 1206 1205
2032 2 tri 1370 1399 1387
2033 2 tri 1156 1154 1116
2034 2 tri 1214 1207 1250
2035 2 tri 1504 1482 1477
2036 2 tri 1461 1440 1452
2037 2 tri 1338 1365 1344
2038 2 tri 1283 1286 1312
2039 2 tri 1379 1388 1365
2040 2 tri 1319 1293 1285
2041 2 tri 1466 1498 1476
2042 2 tri 1551 1539 1525
2043 2 tri 1582 1564 1553
2044 2 tri 1553 1564 1544
2045 2 tri 1667 1691 1676
2046 2 tri 1498 1509 1527
2047 2 tri 1166 1133 1135
2048 2 tri 1143 1182 1144
2049 2 tri 1185 1201 1223
2050 2 tri 1625 1607 1637
2051 2 tri 1252 1208 1234
2052 2 tri 1244 1213 1221
2053 2 tri 1271 1239 1240
2054 2 tri 1328 1304 1295
2055 2 tri 1327 1349 1346
2056 2 tri 1340 1307 1341
2057 2 tri 1505 1494 1488
2058 2 tri 1098 1131 1097
2059 2 tri 1156 1189 1154
2060 2 tri 1091 1093 1123
2061 2 tri 1117 1114 1081
2062 2 tri 1336 1329 1300
2063 2 tri 1376 1387 1405
2064 2 tri 1467 1474 1453
2065 2 tri 1492 1484 1518
2066 2 tri 1160 1114 1117
2067 2 tri 1515 1539 1535
2068 2 tri 1462 461 1450
2069 2 tri 1425 1421 1447
2070 2 tri 1349 1359 1377
2071 2 tri 1415 1405 1387
2072 2 tri 1369 1385 1359
2073 2 tri 446 1513 1502
2074 2 tri 1459 1461 1482
2075 2 tri 1542 1517 1520
2076 2 tri 1620 394 388
2077 2 tri 1538 1544 1556
2078 2 tri 1605 1604 1628
2079 2 tri 1679 1648 1665
2080 2 tri 1538 1525 1513
2081 2 tri 1694 1689 1720
2082 2 tri 1448 1413 1423
2083 2 tri 1596 1569 1590
2084 2 tri 1491 1479 461
2085 2 tri 1508 1481 1482
2086 2 tri 1754 1738 1766
2087 2 tri 1584 1564 1582
2088 2 tri 1650 1674 1663
2089 2 tri 1557 1534 1542
2090 2 tri 1665 1640 1653
2091 2 tri 400 1592 408
2092 2 tri 1757 1747 1769
2093 2 tri 1676 1665 1653
2094 2 tri 1744 1738 1712
2095 2 tri 1650 1643 1626
2096 2 tri 1788 1802 1793
2097 2 tri 1402 1444 1407
2098 2 tri 1552 1572 1570
2099 2 tri 1570 1587 1586
2100 2 tri 1622 1600 1609
2101 2 tri 353 358 1649
2102 2 tri 1587 1612 1597
2103 2 tri 1316 1353 1328
2104 2 tri 1529 1546 1512
2105 2 tri 1545 1559 1529
2106 2 tri 1574 1588 1562
2107 2 tri 1675 1697 1688
2108 2 tri 1609 1613 1626
2109 2 tri 1716 1722 1741
2110 2 tri 319 1736 327
2111 2 tri 1769 1774 1757
2112 2 tri 319 1747 1736
2113 2 tri 1737 1734 1709
2114 2 tri 1783 1769 1776
2115 2 tri 1204 1243 1229
2116 2 tri 1164 1208 1190
2117 2 tri 1164 1159 1124
2118 2 tri 1130 1171 1172
2119 2 tri 1175 1183 1213
2120 2 tri 1253 1213 1244
2121 2 tri 1180 1166 1135
2122 2 tri 1180 1135 1138
2123 2 tri 1289 1309 1278
2124 2 tri 1213 1183 1221
2125 2 tri 1258 1289 1278
2126 2 tri 1262 1264 1234
2127 2 tri 1436 1472 1475
2128 2 tri 1313 1285 1278
2129 2 tri 1381 1352 1350
2130 2 tri 1428 1382 1383
2131 2 tri 1287 1276 1252
2132 2 tri 1252 1225 1208
2133 2 tri 1243 1225 1252
2134 2 tri 1287 1293 1317
2135 2 tri 1267 1302 1284
2136 2 tri 1276 1287 1314
2137 2 tri 1267 1254 1229
2138 2 tri 1262 1234 1231
2139 2 tri 1264 1252 1234
2140 2 tri 1287 1252 1264
2141 2 tri 1276 1243 1252
2142 2 tri 1269 1232 1254
2143 2 tri 1306 1269 1284
2144 2 tri 1232 1191 1217
2145 2 tri 1340 1303 1307
2146 2 tri 1324 1302 1343
2147 2 tri 1306 1341 1307
2148 2 tri 1380 1343 1351
2149 2 tri 1373 1407 1374
2150 2 tri 1341 1306 1324
2151 2 tri 1178 1206 1173
2152 2 tri 1240 1201 1199
2153 2 tri 1280 1265 1297
2154 2 tri 1265 1223 1239
2155 2 tri 1295 1316 1328
2156 2 tri 1316 1295 1280
2157 2 tri 1128 1094 1131
2158 2 tri 1139 1098 1137
2159 2 tri 1182 1178 1144
2160 2 tri 1144 1103 1143
2161 2 tri 1240 1239 1201
2162 2 tri 1155 1158 1111
2163 2 tri 1128 1093 1094
2164 2 tri 1157 1198 1192
2165 2 tri 1192 1212 1163
2166 2 tri 1112 1154 1148
2167 2 tri 1167 1122 1163
2168 2 tri 1078 1079 1107
2169 2 tri 1069 1089 1068
2170 2 tri 1102 1074 1075
2171 2 tri 1148 1108 1112
2172 2 tri 1136 1099 1095
2173 2 tri 1078 1109 1077
2174 2 tri 1101 1076 1104
2175 2 tri 1219 1259 1228
2176 2 tri 1404 1423 1390
2177 2 tri 1327 1301 1311
2178 2 tri 1089 1129 1087
2179 2 tri 1275 1247 1277
2180 2 tri 1071 1092 1096
2181 2 tri 1096 1092 1134
2182 2 tri 1070 1096 1090
2183 2 tri 1181 1188 1220
2184 2 tri 1174 1179 1215
2185 2 tri 1132 1096 1141
2186 2 tri 1298 1277 1301
2187 2 tri 1249 1216 1220
2188 2 tri 1129 1174 1170
2189 2 tri 1356 1323 1344
2190 2 tri 1282 1250 1242
2191 2 tri 1165 1114 1160
2192 2 tri 1288 1255 1250
2193 2 tri 1117 1081 1084
2194 2 tri 1274 1299 1310
2195 2 tri 1298 1301 1322
2196 2 tri 1242 1274 1282
2197 2 tri 1299 1275 1298
2198 2 tri 1299 1320 1330
2199 2 tri 1445 1419 1427
2200 2 tri 1358 1337 1346
2201 2 tri 1320 1299 1298
2202 2 tri 1371 1346 1366
2203 2 tri 1322 1301 1327
2204 2 tri 1321 1294 1329
2205 2 tri 1367 1376 1395
2206 2 tri 1251 1222 1257
2207 2 tri 1151 1107 1118
2208 2 tri 1357 1376 1348
2209 2 tri 1426 1406 1414
2210 2 tri 1241 1226 1196
2211 2 tri 1195 1230 1187
2212 2 tri 1272 1300 1266
2213 2 tri 1329 1348 1321
2214 2 tri 1342 1312 1321
2215 2 tri 1249 1277 1247
2216 2 tri 1167 1196 1156
2217 2 tri 1226 1260 1224
2218 2 tri 1202 1236 1233
2219 2 tri 1305 1273 1291
2220 2 tri 1212 1241 1196
2221 2 tri 1291 1256 1261
2222 2 tri 1212 1256 1241
2223 2 tri 1318 1292 1304
2224 2 tri 1256 1273 1241
2225 2 tri 1353 1363 1328
2226 2 tri 1227 1261 1256
2227 2 tri 1227 1198 1233
2228 2 tri 1420 1395 1405
2229 2 tri 1348 1329 1357
2230 2 tri 1369 1367 1389
2231 2 tri 1376 1405 1395
2232 2 tri 1308 1272 1279
2233 2 tri 446 442 1513
2234 2 tri 1400 1386 1430
2235 2 tri 1537 1521 1524
2236 2 tri 1471 1467 1447
2237 2 tri 1535 1506 1515
2238 2 tri 1491 461 454
2239 2 tri 454 1502 1491
2240 2 tri 446 1502 454
2241 2 tri 1535 1539 1563
2242 2 tri 1369 1389 1385
2243 2 tri 1395 1414 1389
2244 2 tri 1420 1429 1441
2245 2 tri 1429 1415 1443
2246 2 tri 1426 1435 474
2247 2 tri 1450 461 469
2248 2 tri 1333 1342 1359
2249 2 tri 1367 1395 1389
2250 2 tri 1408 1385 1406
2251 2 tri 1389 1414 1406
2252 2 tri 1522 1518 1554
2253 2 tri 1290 1255 1288
2254 2 tri 1397 1388 1379
2255 2 tri 1384 1377 1398
2256 2 tri 505 1358 1371
2257 2 tri 1468 469 1479
2258 2 tri 1439 1458 1427
2259 2 tri 1439 1410 1424
2260 2 tri 1511 1484 1481
2261 2 tri 1438 1409 1419
2262 2 tri 1554 1566 1522
2263 2 tri 486 1408 479
2264 2 tri 1426 1414 1435
2265 2 tri 1548 1577 1585
2266 2 tri 1484 1458 1481
2267 2 tri 1493 1504 1477
2268 2 tri 1481 1458 1459
2269 2 tri 1513 1525 1502
2270 2 tri 1513 1528 1538
2271 2 tri 1590 1569 1563
2272 2 tri 1518 1511 1548
2273 2 tri 1522 1495 1492
2274 2 tri 1495 1456 1464
2275 2 tri 1479 1506 1493
2276 2 tri 1508 1533 1541
2277 2 tri 1548 1511 1541
2278 2 tri 1585 1616 1601
2279 2 tri 1657 1619 1632
2280 2 tri 1684 1645 1678
2281 2 tri 1616 1645 1661
2282 2 tri 1745 1726 1706
2283 2 tri 1644 1669 1678
2284 2 tri 1628 1604 1627
2285 2 tri 1683 1689 1658
2286 2 tri 1657 1669 1634
2287 2 tri 1770 1786 1785
2288 2 tri 1694 1706 1669
2289 2 tri 1744 1775 1766
2290 2 tri 1754 1720 1738
2291 2 tri 1710 1689 1683
2292 2 tri 1501 442 1487
2293 2 tri 436 1528 442
2294 2 tri 1584 1582 1604
2295 2 tri 1617 1603 1592
2296 2 tri 1605 1584 1604
2297 2 tri 1582 1591 1608
2298 2 tri 1553 1567 1582
2299 2 tri 1578 1592 1603
2300 2 tri 408 1592 1578
2301 2 tri 1597 1586 1587
2302 2 tri 1627 1608 1621
2303 2 tri 1591 1578 1603
2304 2 tri 1653 1630 1646
2305 2 tri 1610 1592 400
2306 2 tri 1693 1721 1712
2307 2 tri 1640 1621 1617
2308 2 tri 1679 1712 1683
2309 2 tri 1710 1720 1689
2310 2 tri 1788 1768 1779
2311 2 tri 1639 1650 1626
2312 2 tri 1762 1737 1759
2313 2 tri 1776 1769 1758
2314 2 tri 319 313 1747
2315 2 tri 1758 1769 1747
2316 2 tri 1790 1774 1783
2317 2 tri 1772 1776 1763
2318 2 tri 1690 1717 1709
2319 2 tri 1610 394 1620
2320 2 tri 1662 1687 1674
2321 2 tri 1723 1743 1730
2322 2 tri 1685 1652 1672
2323 2 tri 334 1723 1713
2324 2 tri 1692 1695 1680
2325 2 tri 1667 1676 1653
2326 2 tri 1730 1743 1749
2327 2 tri 1715 1703 1691
2328 2 tri 1730 1749 1731
2329 2 tri 1781 1773 1793
2330 2 tri 1446 1466 1476
2331 2 tri 1536 1562 1552
2332 2 tri 1612 375 381
2333 2 tri 1633 1646 1620
2334 2 tri 1449 1421 1431
2335 2 tri 1318 1291 1292
2336 2 tri 1517 1507 1485
2337 2 tri 1374 1386 1353
2338 2 tri 1512 1509 1480
2339 2 tri 1512 1536 1509
2340 2 tri 1470 1442 1430
2341 2 tri 1334 1297 1303
2342 2 tri 1498 1466 1480
2343 2 tri 1339 1304 1328
2344 2 tri 1529 1499 1503
2345 2 tri 1512 1480 1478
2346 2 tri 1509 1536 1527
2347 2 tri 1546 1562 1536
2348 2 tri 1559 1574 1546
2349 2 tri 1615 1622 1635
2350 2 tri 1659 1631 1651
2351 2 tri 353 348 1692
2352 2 tri 1490 1454 1444
2353 2 tri 1613 1631 1639
2354 2 tri 1624 1625 1655
2355 2 tri 1624 1611 1595
2356 2 tri 1490 1543 1526
2357 2 tri 1343 1302 1314
2358 2 tri 1437 1422 1392
2359 2 tri 1314 1302 1276
2360 2 tri 1636 1638 1598
2361 2 tri 1530 1545 1503
2362 2 tri 1428 1417 1382
2363 2 tri 1382 1417 1381
2364 2 tri 1422 1396 1380
2365 2 tri 1486 1472 1437
2366 2 tri 1579 1568 1595
2367 2 tri 1540 1497 1531
2368 2 tri 1381 1392 1352
2369 2 tri 1594 1540 1580
2370 2 tri 1313 1350 1319
2371 2 tri 1629 1573 1594
2372 2 tri 1598 1618 1583
2373 2 tri 1673 1629 1641
2374 2 tri 1602 1598 1561
2375 2 tri 1673 1666 1629
2376 2 tri 1555 1598 1583
2377 2 tri 1671 1638 1636
2378 2 tri 1637 1656 1625
2379 2 tri 1655 1651 1624
2380 2 tri 1718 1704 1696
2381 2 tri 1702 1722 1699
2382 2 tri 307 1763 1758
2383 2 tri 1696 1685 1716
2384 2 tri 307 1758 313
2385 2 tri 1711 1724 1728
2386 2 tri 301 1763 307
2387 2 tri 1789 1782 1795
2388 2 tri 1748 1741 1722
2389 2 tri 1751 1765 1756
2390 2 tri 1760 1748 1767
2391 2 tri 1777 1760 1767
2392 2 tri 1741 1748 1760
2393 2 tri 1153 1119 1161
2394 2 tri 1113 1146 1155
2395 2 tri 1152 1201 1185
2396 2 tri 1199 1232 1240
2397 2 tri 1115 1146 1113
2398 2 tri 1217 1254 1232
2399 2 tri 1204 1229 1193
2400 2 tri 1208 1225 1190
2401 2 tri 1164 1190 1159
2402 2 tri 1133 1166 1171
2403 2 tri 1175 1140 1183
2404 2 tri 1180 1138 1175
2405 2 tri 1180 1175 1213
2406 2 tri 1138 1140 1175
2407 2 tri 1253 1231 1218
2408 2 tri 1203 1234 1208
2409 2 tri 1213 1218 1180
2410 2 tri 1203 1208 1172
2411 2 tri 1133 1171 1130
2412 2 tri 1166 1197 1171
2413 2 tri 1130 1172 1127
2414 2 tri 1171 1203 1172
2415 2 tri 1180 1197 1166
2416 2 tri 1231 1234 1203
2417 2 tri 1197 1203 1171
2418 2 tri 1197 1231 1203
2419 2 tri 1218 1231 1197
2420 2 tri 1262 1293 1264
2421 2 tri 1180 1218 1197
2422 2 tri 1213 1253 1218
2423 2 tri 1244 1221 1258
2424 2 tri 1325 1345 1309
2425 2 tri 1345 1350 1313
2426 2 tri 1278 1309 1313
2427 2 tri 1289 1325 1309
2428 2 tri 1383 1345 1361
2429 2 tri 1361 1345 1325
2430 2 tri 1383 1382 1345
2431 2 tri 1383 1361 1412
2432 2 tri 1262 1285 1293
2433 2 tri 1309 1345 1313
2434 2 tri 1319 1317 1293
2435 2 tri 1380 1392 1422
2436 2 tri 1352 1319 1350
2437 2 tri 1352 1317 1319
2438 2 tri 1253 1262 1231
2439 2 tri 1285 1313 1319
2440 2 tri 1244 1278 1253
2441 2 tri 1244 1258 1278
2442 2 tri 1253 1285 1262
2443 2 tri 1253 1278 1285
2444 2 tri 1267 1243 1276
2445 2 tri 1176 1217 1191
2446 2 tri 1293 1287 1264
2447 2 tri 1317 1314 1287
2448 2 tri 1352 1351 1317
2449 2 tri 1324 1364 1341
2450 2 tri 1317 1351 1314
2451 2 tri 1396 1364 1343
2452 2 tri 1314 1351 1343
2453 2 tri 1352 1392 1351
2454 2 tri 1284 1269 1254
2455 2 tri 1307 1303 1271
2456 2 tri 1269 1306 1307
2457 2 tri 1284 1302 1324
2458 2 tri 1284 1324 1306
2459 2 tri 1343 1364 1324
2460 2 tri 1115 1153 1146
2461 2 tri 1159 1121 1124
2462 2 tri 1267 1229 1243
2463 2 tri 1254 1217 1229
2464 2 tri 1302 1267 1276
2465 2 tri 1284 1254 1267
2466 2 tri 1155 1191 1199
2467 2 tri 1146 1176 1191
2468 2 tri 1185 1145 1152
2469 2 tri 1191 1232 1199
2470 2 tri 1127 1164 1124
2471 2 tri 1225 1243 1204
2472 2 tri 1121 1159 1161
2473 2 tri 1229 1217 1193
2474 2 tri 1161 1159 1204
2475 2 tri 1190 1225 1204
2476 2 tri 1204 1159 1190
2477 2 tri 1204 1193 1161
2478 2 tri 1153 1161 1193
2479 2 tri 1119 1121 1161
2480 2 tri 1172 1164 1127
2481 2 tri 1172 1208 1164
2482 2 tri 1217 1176 1193
2483 2 tri 1115 1119 1153
2484 2 tri 1201 1152 1158
2485 2 tri 1111 1113 1155
2486 2 tri 1153 1176 1146
2487 2 tri 1153 1193 1176
2488 2 tri 1143 1145 1185
2489 2 tri 1143 1105 1145
2490 2 tri 1105 1106 1145
2491 2 tri 1158 1199 1201
2492 2 tri 1144 1137 1100
2493 2 tri 1178 1139 1137
2494 2 tri 1270 1237 1263
2495 2 tri 1185 1182 1143
2496 2 tri 1210 1248 1235
2497 2 tri 1144 1178 1137
2498 2 tri 1268 1270 1304
2499 2 tri 1236 1205 1237
2500 2 tri 1178 1182 1210
2501 2 tri 1110 1158 1152
2502 2 tri 1155 1199 1158
2503 2 tri 1223 1182 1185
2504 2 tri 1223 1248 1210
2505 2 tri 1178 1210 1206
2506 2 tri 1182 1223 1210
2507 2 tri 1271 1265 1239
2508 2 tri 1223 1201 1239
2509 2 tri 1269 1240 1232
2510 2 tri 1271 1303 1265
2511 2 tri 1297 1265 1303
2512 2 tri 1248 1223 1265
2513 2 tri 1269 1271 1240
2514 2 tri 1269 1307 1271
2515 2 tri 1364 1373 1341
2516 2 tri 1334 1316 1297
2517 2 tri 1340 1334 1303
2518 2 tri 1280 1295 1263
2519 2 tri 1374 1334 1340
2520 2 tri 1353 1316 1334
2521 2 tri 1374 1353 1334
2522 2 tri 1386 1363 1353
2523 2 tri 1210 1235 1206
2524 2 tri 1280 1297 1316
2525 2 tri 1235 1263 1237
2526 2 tri 1235 1248 1280
2527 2 tri 1235 1280 1263
2528 2 tri 1248 1265 1280
2529 2 tri 1295 1270 1263
2530 2 tri 1173 1169 1131
2531 2 tri 1292 1268 1304
2532 2 tri 1233 1198 1202
2533 2 tri 1304 1270 1295
2534 2 tri 1268 1236 1270
2535 2 tri 1433 1416 1391
2536 2 tri 1273 1260 1241
2537 2 tri 1451 1411 1442
2538 2 tri 1339 1328 1363
2539 2 tri 1318 1326 1291
2540 2 tri 1336 1360 1370
2541 2 tri 1363 1375 1339
2542 2 tri 1391 1393 1362
2543 2 tri 1354 1362 1326
2544 2 tri 1360 1368 1394
2545 2 tri 1268 1292 1261
2546 2 tri 1326 1362 1335
2547 2 tri 1339 1318 1304
2548 2 tri 1291 1261 1292
2549 2 tri 1354 1318 1339
2550 2 tri 1354 1326 1318
2551 2 tri 1167 1212 1196
2552 2 tri 1227 1256 1212
2553 2 tri 1261 1233 1268
2554 2 tri 1261 1227 1233
2555 2 tri 1236 1202 1205
2556 2 tri 1128 1123 1093
2557 2 tri 1237 1205 1206
2558 2 tri 1173 1131 1139
2559 2 tri 1270 1236 1237
2560 2 tri 1268 1233 1236
2561 2 tri 1198 1162 1202
2562 2 tri 1123 1125 1091
2563 2 tri 1202 1169 1205
2564 2 tri 1202 1162 1169
2565 2 tri 1169 1173 1205
2566 2 tri 1139 1178 1173
2567 2 tri 1198 1157 1162
2568 2 tri 1192 1227 1212
2569 2 tri 1125 1163 1122
2570 2 tri 1125 1157 1163
2571 2 tri 1157 1192 1163
2572 2 tri 1198 1227 1192
2573 2 tri 1122 1088 1125
2574 2 tri 1085 1116 1083
2575 2 tri 1088 1091 1125
2576 2 tri 1131 1169 1128
2577 2 tri 1131 1094 1097
2578 2 tri 1139 1131 1098
2579 2 tri 1157 1123 1162
2580 2 tri 1157 1125 1123
2581 2 tri 1162 1128 1169
2582 2 tri 1162 1123 1128
2583 2 tri 1137 1098 1100
2584 2 tri 1144 1100 1103
2585 2 tri 1103 1105 1143
2586 2 tri 1152 1145 1106
2587 2 tri 1158 1110 1111
2588 2 tri 1152 1106 1110
2589 2 tri 1086 1120 1085
2590 2 tri 1122 1086 1088
2591 2 tri 1122 1120 1086
2592 2 tri 1167 1120 1122
2593 2 tri 1116 1085 1120
2594 2 tri 1116 1154 1112
2595 2 tri 1296 1260 1273
2596 2 tri 1118 1080 1108
2597 2 tri 1080 1082 1108
2598 2 tri 1083 1116 1112
2599 2 tri 1082 1112 1108
2600 2 tri 1083 1112 1082
2601 2 tri 1109 1078 1107
2602 2 tri 1109 1107 1151
2603 2 tri 1079 1080 1118
2604 2 tri 1186 1224 1209
2605 2 tri 1107 1079 1118
2606 2 tri 1184 1194 1147
2607 2 tri 1102 1136 1095
2608 2 tri 1142 1104 1150
2609 2 tri 1104 1109 1150
2610 2 tri 1104 1077 1109
2611 2 tri 1101 1075 1076
2612 2 tri 1076 1077 1104
2613 2 tri 1084 1087 1126
2614 2 tri 1090 1089 1069
2615 2 tri 1067 1084 1066
2616 2 tri 1068 1087 1067
2617 2 tri 1066 1084 1081
2618 2 tri 1067 1087 1084
2619 2 tri 1126 1117 1084
2620 2 tri 1200 1211 1242
2621 2 tri 1068 1089 1087
2622 2 tri 1132 1179 1174
2623 2 tri 1087 1129 1126
2624 2 tri 1089 1090 1132
2625 2 tri 1089 1132 1129
2626 2 tri 1090 1096 1132
2627 2 tri 1070 1071 1096
2628 2 tri 1071 1072 1092
2629 2 tri 1141 1134 1181
2630 2 tri 1092 1099 1134
2631 2 tri 1069 1070 1090
2632 2 tri 1073 1099 1072
2633 2 tri 1099 1092 1072
2634 2 tri 1101 1102 1075
2635 2 tri 1095 1073 1074
2636 2 tri 1102 1095 1074
2637 2 tri 1099 1073 1095
2638 2 tri 1142 1184 1147
2639 2 tri 1136 1149 1099
2640 2 tri 1181 1149 1188
2641 2 tri 1134 1099 1149
2642 2 tri 1141 1181 1179
2643 2 tri 1134 1149 1181
2644 2 tri 1281 1249 1251
2645 2 tri 1216 1247 1215
2646 2 tri 1286 1259 1294
2647 2 tri 1220 1188 1222
2648 2 tri 1311 1281 1283
2649 2 tri 1301 1277 1281
2650 2 tri 1215 1247 1245
2651 2 tri 1216 1181 1220
2652 2 tri 1251 1249 1220
2653 2 tri 1281 1277 1249
2654 2 tri 1132 1141 1179
2655 2 tri 1096 1134 1141
2656 2 tri 1170 1174 1211
2657 2 tri 1179 1216 1215
2658 2 tri 1247 1216 1249
2659 2 tri 1179 1181 1216
2660 2 tri 1126 1170 1160
2661 2 tri 1126 1129 1170
2662 2 tri 1211 1174 1215
2663 2 tri 1129 1132 1174
2664 2 tri 1126 1160 1117
2665 2 tri 1170 1211 1200
2666 2 tri 1200 1207 1160
2667 2 tri 1207 1200 1242
2668 2 tri 1160 1170 1200
2669 2 tri 1255 1214 1250
2670 2 tri 1165 1160 1207
2671 2 tri 1165 1207 1214
2672 2 tri 1207 1242 1250
2673 2 tri 1211 1215 1245
2674 2 tri 1274 1245 1275
2675 2 tri 1242 1211 1245
2676 2 tri 1282 1274 1310
2677 2 tri 1242 1245 1274
2678 2 tri 1274 1275 1299
2679 2 tri 1245 1247 1275
2680 2 tri 1338 1344 1315
2681 2 tri 1288 1250 1282
2682 2 tri 1282 1315 1288
2683 2 tri 1282 1310 1315
2684 2 tri 1323 1290 1288
2685 2 tri 1315 1323 1288
2686 2 tri 1332 1290 1323
2687 2 tri 1344 1323 1315
2688 2 tri 1356 1378 1390
2689 2 tri 1372 1332 1356
2690 2 tri 1310 1338 1315
2691 2 tri 1378 1356 1344
2692 2 tri 1323 1356 1332
2693 2 tri 1390 1413 1372
2694 2 tri 1330 1338 1310
2695 2 tri 1365 1378 1344
2696 2 tri 1330 1355 1338
2697 2 tri 1347 1358 509
2698 2 tri 1355 1365 1338
2699 2 tri 1355 509 1379
2700 2 tri 1337 1358 1347
2701 2 tri 499 1384 490
2702 2 tri 1347 509 1355
2703 2 tri 505 1371 499
2704 2 tri 1320 1298 1322
2705 2 tri 1275 1277 1298
2706 2 tri 1347 1320 1337
2707 2 tri 1347 1355 1330
2708 2 tri 1299 1330 1310
2709 2 tri 1320 1347 1330
2710 2 tri 1311 1283 1312
2711 2 tri 1281 1251 1283
2712 2 tri 1281 1311 1301
2713 2 tri 1333 1359 1349
2714 2 tri 1337 1322 1346
2715 2 tri 1337 1320 1322
2716 2 tri 1333 1327 1311
2717 2 tri 1346 1322 1327
2718 2 tri 1312 1333 1311
2719 2 tri 1312 1342 1333
2720 2 tri 1346 1349 1366
2721 2 tri 1327 1333 1349
2722 2 tri 1367 1342 1348
2723 2 tri 1369 1359 1342
2724 2 tri 1342 1367 1369
2725 2 tri 1348 1376 1367
2726 2 tri 1286 1294 1321
2727 2 tri 1300 1329 1294
2728 2 tri 1342 1321 1348
2729 2 tri 1286 1283 1257
2730 2 tri 1279 1296 1308
2731 2 tri 1387 1376 1357
2732 2 tri 1187 1230 1219
2733 2 tri 1266 1294 1259
2734 2 tri 1222 1188 1177
2735 2 tri 1230 1266 1259
2736 2 tri 1238 1209 1246
2737 2 tri 1300 1294 1266
2738 2 tri 1222 1228 1257
2739 2 tri 1219 1230 1259
2740 2 tri 1251 1257 1283
2741 2 tri 1228 1259 1257
2742 2 tri 1312 1286 1321
2743 2 tri 1257 1259 1286
2744 2 tri 1149 1136 1177
2745 2 tri 1142 1101 1104
2746 2 tri 1228 1222 1194
2747 2 tri 1251 1220 1222
2748 2 tri 1147 1136 1102
2749 2 tri 1177 1188 1149
2750 2 tri 1177 1147 1194
2751 2 tri 1102 1101 1147
2752 2 tri 1147 1177 1136
2753 2 tri 1194 1222 1177
2754 2 tri 1184 1142 1150
2755 2 tri 1147 1101 1142
2756 2 tri 1109 1151 1150
2757 2 tri 1186 1148 1154
2758 2 tri 1187 1184 1150
2759 2 tri 1228 1194 1184
2760 2 tri 1151 1187 1150
2761 2 tri 1151 1195 1187
2762 2 tri 1118 1168 1151
2763 2 tri 1224 1260 1246
2764 2 tri 1184 1219 1228
2765 2 tri 1184 1187 1219
2766 2 tri 1238 1195 1209
2767 2 tri 1186 1168 1148
2768 2 tri 1230 1238 1266
2769 2 tri 1246 1260 1279
2770 2 tri 1151 1168 1195
2771 2 tri 1118 1108 1148
2772 2 tri 1272 1238 1246
2773 2 tri 1195 1168 1209
2774 2 tri 1266 1238 1272
2775 2 tri 1230 1195 1238
2776 2 tri 1189 1186 1154
2777 2 tri 1168 1118 1148
2778 2 tri 1120 1156 1116
2779 2 tri 1196 1189 1156
2780 2 tri 1120 1167 1156
2781 2 tri 1163 1212 1167
2782 2 tri 1224 1186 1189
2783 2 tri 1209 1168 1186
2784 2 tri 1209 1224 1246
2785 2 tri 1226 1241 1260
2786 2 tri 1189 1226 1224
2787 2 tri 1189 1196 1226
2788 2 tri 1291 1273 1256
2789 2 tri 1291 1326 1305
2790 2 tri 1308 1300 1272
2791 2 tri 1296 1273 1305
2792 2 tri 1296 1279 1260
2793 2 tri 1272 1246 1279
2794 2 tri 1335 1331 1296
2795 2 tri 1370 1387 1357
2796 2 tri 1335 1368 1331
2797 2 tri 1336 1300 1308
2798 2 tri 1329 1336 1357
2799 2 tri 1335 1296 1305
2800 2 tri 1308 1331 1336
2801 2 tri 1368 1393 1403
2802 2 tri 1336 1370 1357
2803 2 tri 1394 1368 1403
2804 2 tri 1336 1331 1360
2805 2 tri 1308 1296 1331
2806 2 tri 1326 1335 1305
2807 2 tri 1362 1368 1335
2808 2 tri 1331 1368 1360
2809 2 tri 1460 1432 1446
2810 2 tri 1362 1393 1368
2811 2 tri 1362 1354 1391
2812 2 tri 1432 1403 1393
2813 2 tri 1393 1416 1432
2814 2 tri 1399 1394 1421
2815 2 tri 1370 1360 1394
2816 2 tri 1387 1399 1415
2817 2 tri 1370 1394 1399
2818 2 tri 1471 1447 1449
2819 2 tri 1394 1403 1431
2820 2 tri 1457 1449 1431
2821 2 tri 1421 1394 1431
2822 2 tri 1432 1457 1431
2823 2 tri 1425 1415 1399
2824 2 tri 1476 1460 1446
2825 2 tri 1431 1403 1432
2826 2 tri 1485 1457 1460
2827 2 tri 1494 1483 1471
2828 2 tri 1485 1460 1476
2829 2 tri 1457 1432 1460
2830 2 tri 1498 1500 1476
2831 2 tri 1488 1473 1457
2832 2 tri 1476 1500 1485
2833 2 tri 1498 1527 1520
2834 2 tri 1500 1517 1485
2835 2 tri 415 1578 1567
2836 2 tri 1520 1547 1542
2837 2 tri 1542 1534 1517
2838 2 tri 1517 1534 1507
2839 2 tri 1557 1575 400
2840 2 tri 1473 1494 1471
2841 2 tri 1505 1521 1510
2842 2 tri 1473 1488 1494
2843 2 tri 1507 1534 1524
2844 2 tri 1505 1524 1521
2845 2 tri 1505 1507 1524
2846 2 tri 1473 1471 1449
2847 2 tri 1483 1487 1467
2848 2 tri 1457 1473 1449
2849 2 tri 1457 1485 1488
2850 2 tri 1507 1488 1485
2851 2 tri 1507 1505 1488
2852 2 tri 461 1462 454
2853 2 tri 1483 1501 1487
2854 2 tri 1494 1510 1483
2855 2 tri 1510 1521 428
2856 2 tri 1483 1510 1501
2857 2 tri 1494 1505 1510
2858 2 tri 1501 436 442
2859 2 tri 1501 1510 436
2860 2 tri 436 428 1544
2861 2 tri 436 1510 428
2862 2 tri 1491 1506 1479
2863 2 tri 1493 1477 1468
2864 2 tri 1525 1515 1502
2865 2 tri 1535 1563 1569
2866 2 tri 442 1528 1513
2867 2 tri 436 1544 1528
2868 2 tri 1468 1479 1493
2869 2 tri 469 461 1479
2870 2 tri 1515 1491 1502
2871 2 tri 1515 1506 1491
2872 2 tri 1462 1474 454
2873 2 tri 1487 442 446
2874 2 tri 446 454 1474
2875 2 tri 1441 1435 1420
2876 2 tri 446 1474 1487
2877 2 tri 1443 1415 1425
2878 2 tri 1449 1447 1421
2879 2 tri 1467 1487 1474
2880 2 tri 1462 1453 1474
2881 2 tri 1441 1450 1435
2882 2 tri 1443 1467 1453
2883 2 tri 1471 1483 1467
2884 2 tri 1421 1425 1399
2885 2 tri 1447 1443 1425
2886 2 tri 1462 1441 1453
2887 2 tri 1405 1415 1429
2888 2 tri 1467 1443 1447
2889 2 tri 1453 1429 1443
2890 2 tri 1395 1420 1414
2891 2 tri 1405 1429 1420
2892 2 tri 1420 1435 1414
2893 2 tri 1450 469 1435
2894 2 tri 1453 1441 1429
2895 2 tri 1462 1450 1441
2896 2 tri 1349 1377 1366
2897 2 tri 1359 1385 1377
2898 2 tri 486 1398 1408
2899 2 tri 1377 1385 1398
2900 2 tri 1408 1406 1426
2901 2 tri 1385 1389 1406
2902 2 tri 486 490 1398
2903 2 tri 1398 1385 1408
2904 2 tri 469 474 1435
2905 2 tri 479 1408 1426
2906 2 tri 1410 490 1424
2907 2 tri 1384 1398 490
2908 2 tri 1439 1427 1410
2909 2 tri 1397 1379 509
2910 2 tri 1440 486 479
2911 2 tri 1424 490 486
2912 2 tri 1346 1371 1358
2913 2 tri 1366 1384 1371
2914 2 tri 1410 499 490
2915 2 tri 1366 1377 1384
2916 2 tri 1401 499 1410
2917 2 tri 1371 1384 499
2918 2 tri 1355 1379 1365
2919 2 tri 509 505 1401
2920 2 tri 1419 1397 1401
2921 2 tri 509 1358 505
2922 2 tri 1365 1388 1378
2923 2 tri 1388 1397 1409
2924 2 tri 1356 1390 1372
2925 2 tri 1378 1388 1404
2926 2 tri 1438 1434 1409
2927 2 tri 1390 1378 1404
2928 2 tri 1434 1404 1409
2929 2 tri 1404 1388 1409
2930 2 tri 1448 1423 1456
2931 2 tri 1413 1390 1423
2932 2 tri 1401 1397 509
2933 2 tri 1419 1409 1397
2934 2 tri 499 1401 505
2935 2 tri 1410 1427 1401
2936 2 tri 1445 1427 1458
2937 2 tri 1419 1401 1427
2938 2 tri 1465 1438 1445
2939 2 tri 1434 1423 1404
2940 2 tri 1484 1465 1458
2941 2 tri 1438 1419 1445
2942 2 tri 1464 1434 1438
2943 2 tri 1456 1423 1434
2944 2 tri 1489 1448 1456
2945 2 tri 1484 1492 1465
2946 2 tri 1456 1434 1464
2947 2 tri 1456 1495 1489
2948 2 tri 1492 1518 1522
2949 2 tri 1601 1566 1554
2950 2 tri 1532 1495 1522
2951 2 tri 1495 1532 1489
2952 2 tri 1438 1465 1464
2953 2 tri 1445 1458 1465
2954 2 tri 1464 1492 1495
2955 2 tri 1464 1465 1492
2956 2 tri 1606 1565 1581
2957 2 tri 1518 1484 1511
2958 2 tri 1535 1549 1519
2959 2 tri 1511 1481 1508
2960 2 tri 1504 1533 1508
2961 2 tri 1644 1614 1634
2962 2 tri 1440 1439 1424
2963 2 tri 1459 1458 1439
2964 2 tri 486 1440 1424
2965 2 tri 479 474 1452
2966 2 tri 1440 1459 1439
2967 2 tri 1482 1481 1459
2968 2 tri 1468 474 469
2969 2 tri 479 1426 474
2970 2 tri 1461 1452 1477
2971 2 tri 1440 479 1452
2972 2 tri 1482 1461 1477
2973 2 tri 1459 1440 1461
2974 2 tri 1452 1468 1477
2975 2 tri 1452 474 1468
2976 2 tri 1519 1493 1506
2977 2 tri 1519 1504 1493
2978 2 tri 1533 1504 1519
2979 2 tri 1508 1482 1504
2980 2 tri 1544 1538 1528
2981 2 tri 1551 1563 1539
2982 2 tri 1544 1564 1556
2983 2 tri 1553 428 423
2984 2 tri 1576 1584 1605
2985 2 tri 1556 1564 1584
2986 2 tri 1654 1627 1648
2987 2 tri 1621 1591 1603
2988 2 tri 1658 1628 1654
2989 2 tri 1619 1590 1605
2990 2 tri 1634 1596 1619
2991 2 tri 1563 1551 1576
2992 2 tri 1632 1605 1628
2993 2 tri 1590 1576 1605
2994 2 tri 1525 1539 1515
2995 2 tri 1525 1538 1551
2996 2 tri 1556 1551 1538
2997 2 tri 1556 1584 1576
2998 2 tri 1563 1576 1590
2999 2 tri 1551 1556 1576
3000 2 tri 1549 1535 1569
3001 2 tri 1519 1506 1535
3002 2 tri 1519 1549 1533
3003 2 tri 1581 1614 1606
3004 2 tri 1508 1541 1511
3005 2 tri 1533 1549 1565
3006 2 tri 1518 1548 1554
3007 2 tri 1541 1565 1577
3008 2 tri 1533 1565 1541
3009 2 tri 1549 1569 1581
3010 2 tri 1522 1566 1532
3011 2 tri 1585 1577 1616
3012 2 tri 1548 1541 1577
3013 2 tri 1554 1585 1601
3014 2 tri 1554 1548 1585
3015 2 tri 1549 1581 1565
3016 2 tri 1569 1596 1581
3017 2 tri 1619 1596 1590
3018 2 tri 1614 1581 1596
3019 2 tri 1577 1606 1616
3020 2 tri 1577 1565 1606
3021 2 tri 1644 1634 1669
3022 2 tri 1614 1596 1634
3023 2 tri 1645 1644 1678
3024 2 tri 1606 1614 1644
3025 2 tri 1616 1642 1601
3026 2 tri 1705 1684 1678
3027 2 tri 1616 1606 1645
3028 2 tri 1684 1661 1645
3029 2 tri 1642 1616 1661
3030 2 tri 1678 1726 1705
3031 2 tri 1706 1694 1732
3032 2 tri 1745 1706 1732
3033 2 tri 1657 1634 1619
3034 2 tri 1678 1706 1726
3035 2 tri 1678 1669 1706
3036 2 tri 1732 1764 1745
3037 2 tri 1778 1754 1784
3038 2 tri 1764 1732 1754
3039 2 tri 1754 1778 1764
3040 2 tri 1694 1657 1689
3041 2 tri 1619 1605 1632
3042 2 tri 1658 1657 1632
3043 2 tri 1694 1669 1657
3044 2 tri 1732 1720 1754
3045 2 tri 1732 1694 1720
3046 2 tri 1658 1654 1683
3047 2 tri 1628 1627 1654
3048 2 tri 1657 1658 1689
3049 2 tri 1632 1628 1658
3050 2 tri 1648 1679 1654
3051 2 tri 1712 1738 1710
3052 2 tri 1712 1710 1683
3053 2 tri 1738 1720 1710
3054 2 tri 1785 1797 1775
3055 2 tri 1784 1754 1766
3056 2 tri 1766 1794 1784
3057 2 tri 1721 1744 1712
3058 2 tri 1766 1738 1744
3059 2 tri 1770 1785 1775
3060 2 tri 1794 1766 1775
3061 2 tri 1770 1753 1750
3062 2 tri 1775 1744 1753
3063 2 tri 1753 1770 1775
3064 2 tri 1793 1802 1803
3065 2 tri 1775 1797 1794
3066 2 tri 1646 1667 1653
3067 2 tri 1721 1753 1744
3068 2 tri 1691 1681 1709
3069 2 tri 1729 1753 1721
3070 2 tri 1679 1693 1712
3071 2 tri 1729 1750 1753
3072 2 tri 1621 1640 1648
3073 2 tri 1676 1703 1693
3074 2 tri 1654 1679 1683
3075 2 tri 1665 1676 1693
3076 2 tri 1665 1693 1679
3077 2 tri 1703 1721 1693
3078 2 tri 1604 1608 1627
3079 2 tri 1604 1582 1608
3080 2 tri 1627 1621 1648
3081 2 tri 1608 1591 1621
3082 2 tri 1567 1553 423
3083 2 tri 428 1521 423
3084 2 tri 428 1553 1544
3085 2 tri 423 415 1567
3086 2 tri 1591 1567 1578
3087 2 tri 1591 1582 1567
3088 2 tri 1521 1537 423
3089 2 tri 1524 1534 1550
3090 2 tri 415 1550 408
3091 2 tri 1537 1524 1550
3092 2 tri 1537 415 423
3093 2 tri 1537 1550 415
3094 2 tri 415 408 1578
3095 2 tri 1586 1560 1570
3096 2 tri 1653 1640 1630
3097 2 tri 1621 1603 1617
3098 2 tri 1630 1640 1617
3099 2 tri 1665 1648 1640
3100 2 tri 1586 394 1575
3101 2 tri 1620 1646 1630
3102 2 tri 1617 1610 1630
3103 2 tri 1617 1592 1610
3104 2 tri 1550 1557 408
3105 2 tri 1550 1534 1557
3106 2 tri 1610 400 394
3107 2 tri 1557 1560 1575
3108 2 tri 1557 400 408
3109 2 tri 1575 394 400
3110 2 tri 1557 1542 1560
3111 2 tri 1517 1500 1520
3112 2 tri 1560 1586 1575
3113 2 tri 1597 381 388
3114 2 tri 1586 388 394
3115 2 tri 388 1633 1620
3116 2 tri 1610 1620 1630
3117 2 tri 388 381 1633
3118 2 tri 375 1647 381
3119 2 tri 381 1647 1633
3120 2 tri 1633 1660 1646
3121 2 tri 1664 1670 1690
3122 2 tri 1664 1681 1660
3123 2 tri 1709 1715 1691
3124 2 tri 1690 1709 1681
3125 2 tri 1734 1750 1729
3126 2 tri 1660 1667 1646
3127 2 tri 1660 1681 1667
3128 2 tri 1676 1691 1703
3129 2 tri 1667 1681 1691
3130 2 tri 1734 1715 1709
3131 2 tri 1734 1729 1715
3132 2 tri 1703 1729 1721
3133 2 tri 1703 1715 1729
3134 2 tri 1762 1770 1750
3135 2 tri 1762 1786 1770
3136 2 tri 1785 1799 1797
3137 2 tri 1717 1737 1709
3138 2 tri 1752 1731 1749
3139 2 tri 1781 1762 1759
3140 2 tri 1750 1734 1762
3141 2 tri 1801 1786 1781
3142 2 tri 1799 1785 1786
3143 2 tri 1786 1801 1799
3144 2 tri 1793 1803 1801
3145 2 tri 1734 1737 1762
3146 2 tri 1735 1731 1752
3147 2 tri 1768 1773 1752
3148 2 tri 1735 1717 1714
3149 2 tri 1801 1781 1793
3150 2 tri 1786 1762 1781
3151 2 tri 1707 1713 1730
3152 2 tri 1779 1792 1788
3153 2 tri 1768 1752 1749
3154 2 tri 1759 1737 1735
3155 2 tri 1743 1761 1749
3156 2 tri 1788 1793 1773
3157 2 tri 1759 1773 1781
3158 2 tri 1759 1752 1773
3159 2 tri 1768 1788 1773
3160 2 tri 1792 1802 1788
3161 2 tri 1749 1761 1768
3162 2 tri 1774 1790 1779
3163 2 tri 1792 1800 1802
3164 2 tri 1792 1790 1800
3165 2 tri 1796 1783 1789
3166 2 tri 1790 1792 1779
3167 2 tri 1798 1790 1783
3168 2 tri 1798 1800 1790
3169 2 tri 1783 1796 1798
3170 2 tri 1740 307 1728
3171 2 tri 1758 1747 313
3172 2 tri 1763 1776 1758
3173 2 tri 1783 1774 1769
3174 2 tri 301 1772 1763
3175 2 tri 1789 1783 1776
3176 2 tri 1747 1757 1736
3177 2 tri 1761 1779 1768
3178 2 tri 1779 1761 1774
3179 2 tri 1743 1736 1757
3180 2 tri 1757 1761 1743
3181 2 tri 1757 1774 1761
3182 2 tri 341 1713 1707
3183 2 tri 1687 1677 1698
3184 2 tri 341 1687 334
3185 2 tri 1736 1743 1723
3186 2 tri 1719 319 1708
3187 2 tri 1736 1723 327
3188 2 tri 1688 1697 1708
3189 2 tri 1728 313 1719
3190 2 tri 1708 319 327
3191 2 tri 1719 313 319
3192 2 tri 1688 1677 1659
3193 2 tri 334 327 1723
3194 2 tri 1655 1675 1651
3195 2 tri 1708 1698 1688
3196 2 tri 1688 1698 1677
3197 2 tri 1708 327 1698
3198 2 tri 1662 1674 1650
3199 2 tri 1687 341 1674
3200 2 tri 1674 341 348
3201 2 tri 1687 1698 334
3202 2 tri 341 334 1713
3203 2 tri 1698 327 334
3204 2 tri 1650 1663 1643
3205 2 tri 1674 348 1663
3206 2 tri 366 358 1670
3207 2 tri 1663 348 353
3208 2 tri 341 1707 348
3209 2 tri 1714 1717 1695
3210 2 tri 1714 1707 1731
3211 2 tri 1692 348 1707
3212 2 tri 1707 1730 1731
3213 2 tri 1713 1723 1730
3214 2 tri 1670 1695 1690
3215 2 tri 1692 1707 1714
3216 2 tri 1735 1714 1731
3217 2 tri 1695 1692 1714
3218 2 tri 1759 1735 1752
3219 2 tri 1737 1717 1735
3220 2 tri 1647 375 366
3221 2 tri 1680 1695 1670
3222 2 tri 358 1680 1670
3223 2 tri 353 1692 1680
3224 2 tri 1664 1690 1681
3225 2 tri 1695 1717 1690
3226 2 tri 366 375 1623
3227 2 tri 366 1664 1647
3228 2 tri 1660 1647 1664
3229 2 tri 1660 1633 1647
3230 2 tri 1612 1599 1623
3231 2 tri 1649 1663 353
3232 2 tri 358 366 1635
3233 2 tri 1670 1664 366
3234 2 tri 1649 358 1635
3235 2 tri 353 1680 358
3236 2 tri 1572 1588 1599
3237 2 tri 1562 1546 1574
3238 2 tri 1572 1599 1587
3239 2 tri 1623 1635 366
3240 2 tri 1588 1615 1599
3241 2 tri 1588 1574 1600
3242 2 tri 1586 1597 388
3243 2 tri 1587 1599 1612
3244 2 tri 1597 1612 381
3245 2 tri 1599 1615 1623
3246 2 tri 1612 1623 375
3247 2 tri 1615 1635 1623
3248 2 tri 1542 1547 1560
3249 2 tri 1572 1562 1588
3250 2 tri 1547 1570 1560
3251 2 tri 1547 1527 1552
3252 2 tri 1391 1416 1393
3253 2 tri 1446 1432 1416
3254 2 tri 1416 1433 1446
3255 2 tri 1480 1509 1498
3256 2 tri 1498 1520 1500
3257 2 tri 1527 1547 1520
3258 2 tri 1375 1391 1354
3259 2 tri 1433 1466 1446
3260 2 tri 1375 1411 1391
3261 2 tri 1451 1466 1433
3262 2 tri 1411 1451 1433
3263 2 tri 1442 1470 1478
3264 2 tri 1451 1480 1466
3265 2 tri 1478 1499 1512
3266 2 tri 1547 1552 1570
3267 2 tri 1527 1536 1552
3268 2 tri 1570 1572 1587
3269 2 tri 1552 1562 1572
3270 2 tri 1529 1512 1499
3271 2 tri 1546 1536 1512
3272 2 tri 1579 1613 1589
3273 2 tri 1600 1615 1588
3274 2 tri 1339 1375 1354
3275 2 tri 1375 1400 1411
3276 2 tri 1391 1411 1433
3277 2 tri 1375 1363 1400
3278 2 tri 1451 1478 1480
3279 2 tri 1451 1442 1478
3280 2 tri 1411 1400 1442
3281 2 tri 1363 1386 1400
3282 2 tri 1470 1430 1463
3283 2 tri 1442 1400 1430
3284 2 tri 1499 1470 1503
3285 2 tri 1499 1478 1470
3286 2 tri 1545 1529 1503
3287 2 tri 1559 1546 1529
3288 2 tri 1571 1543 1583
3289 2 tri 1579 1559 1545
3290 2 tri 1530 1558 1568
3291 2 tri 1622 1626 1643
3292 2 tri 1595 1611 1579
3293 2 tri 1624 1651 1631
3294 2 tri 1611 1613 1579
3295 2 tri 1639 1631 1659
3296 2 tri 1559 1589 1574
3297 2 tri 1559 1579 1589
3298 2 tri 1589 1609 1574
3299 2 tri 1609 1626 1622
3300 2 tri 1574 1609 1600
3301 2 tri 1589 1613 1609
3302 2 tri 1649 1622 1643
3303 2 tri 1615 1600 1622
3304 2 tri 1622 1649 1635
3305 2 tri 1643 1663 1649
3306 2 tri 1659 1662 1639
3307 2 tri 1677 1687 1662
3308 2 tri 1611 1631 1613
3309 2 tri 1611 1624 1631
3310 2 tri 1650 1639 1662
3311 2 tri 1626 1613 1639
3312 2 tri 1675 1659 1651
3313 2 tri 1677 1662 1659
3314 2 tri 1625 1593 1607
3315 2 tri 1625 1624 1593
3316 2 tri 1568 1558 1593
3317 2 tri 1593 1624 1595
3318 2 tri 1516 1555 1514
3319 2 tri 1543 1571 1526
3320 2 tri 1618 1607 1583
3321 2 tri 1618 1637 1607
3322 2 tri 1638 1652 1618
3323 2 tri 1751 1741 1760
3324 2 tri 1470 1463 1503
3325 2 tri 1571 1583 1607
3326 2 tri 1496 1454 1490
3327 2 tri 1514 1555 1543
3328 2 tri 1593 1571 1607
3329 2 tri 1558 1530 1526
3330 2 tri 1463 1496 1503
3331 2 tri 1526 1571 1558
3332 2 tri 1593 1558 1571
3333 2 tri 1593 1595 1568
3334 2 tri 1545 1568 1579
3335 2 tri 1545 1530 1568
3336 2 tri 1530 1503 1496
3337 2 tri 1418 1386 1374
3338 2 tri 1530 1496 1526
3339 2 tri 1373 1374 1340
3340 2 tri 1341 1373 1340
3341 2 tri 1418 1430 1386
3342 2 tri 1463 1418 1454
3343 2 tri 1463 1430 1418
3344 2 tri 1444 1454 1407
3345 2 tri 1496 1463 1454
3346 2 tri 1396 1402 1364
3347 2 tri 1407 1418 1374
3348 2 tri 1364 1402 1373
3349 2 tri 1436 1422 1472
3350 2 tri 1402 1407 1373
3351 2 tri 1454 1418 1407
3352 2 tri 1396 1436 1402
3353 2 tri 1514 1543 1490
3354 2 tri 1496 1490 1526
3355 2 tri 1475 1472 1516
3356 2 tri 1444 1475 1490
3357 2 tri 1602 1561 1573
3358 2 tri 1486 1437 1455
3359 2 tri 1472 1422 1437
3360 2 tri 1490 1475 1514
3361 2 tri 1444 1402 1436
3362 2 tri 1343 1380 1396
3363 2 tri 1351 1392 1380
3364 2 tri 1345 1382 1350
3365 2 tri 1417 1392 1381
3366 2 tri 1444 1436 1475
3367 2 tri 1396 1422 1436
3368 2 tri 1350 1382 1381
3369 2 tri 1383 1412 1428
3370 2 tri 1455 1417 1428
3371 2 tri 1437 1392 1417
3372 2 tri 1469 1428 1412
3373 2 tri 1469 1455 1428
3374 2 tri 1486 1455 1497
3375 2 tri 1437 1417 1455
3376 2 tri 1497 1469 1531
3377 2 tri 1497 1455 1469
3378 2 tri 1540 1486 1497
3379 2 tri 1523 1516 1472
3380 2 tri 1580 1540 1531
3381 2 tri 1573 1523 1540
3382 2 tri 1475 1516 1514
3383 2 tri 1472 1486 1523
3384 2 tri 1540 1523 1486
3385 2 tri 1573 1561 1523
3386 2 tri 1543 1555 1583
3387 2 tri 1636 1602 1629
3388 2 tri 1516 1561 1555
3389 2 tri 1516 1523 1561
3390 2 tri 1618 1598 1638
3391 2 tri 1555 1561 1598
3392 2 tri 1666 1636 1629
3393 2 tri 1666 1671 1636
3394 2 tri 1594 1580 1641
3395 2 tri 1629 1594 1641
3396 2 tri 1573 1540 1594
3397 2 tri 1629 1602 1573
3398 2 tri 1636 1598 1602
3399 2 tri 1700 1671 1666
3400 2 tri 1700 1702 1671
3401 2 tri 1700 1666 1701
3402 2 tri 1673 1701 1666
3403 2 tri 1727 1755 1748
3404 2 tri 1700 1701 1725
3405 2 tri 1722 1702 1727
3406 2 tri 1685 1699 1716
3407 2 tri 1672 1671 1702
3408 2 tri 1672 1702 1699
3409 2 tri 1700 1725 1727
3410 2 tri 1696 1668 1685
3411 2 tri 1699 1722 1716
3412 2 tri 1618 1652 1637
3413 2 tri 1638 1671 1672
3414 2 tri 1685 1672 1699
3415 2 tri 1652 1638 1672
3416 2 tri 1704 1711 1686
3417 2 tri 1668 1652 1685
3418 2 tri 1656 1668 1682
3419 2 tri 1637 1652 1668
3420 2 tri 1719 1697 1711
3421 2 tri 1686 1656 1682
3422 2 tri 1625 1656 1655
3423 2 tri 1637 1668 1656
3424 2 tri 1659 1675 1688
3425 2 tri 1655 1656 1686
3426 2 tri 1697 1686 1711
3427 2 tri 1675 1655 1686
3428 2 tri 1708 1697 1719
3429 2 tri 1675 1686 1697
3430 2 tri 1719 1711 1728
3431 2 tri 1686 1682 1704
3432 2 tri 1739 1746 1724
3433 2 tri 1718 1733 1739
3434 2 tri 1718 1696 1716
3435 2 tri 1682 1668 1696
3436 2 tri 1696 1704 1682
3437 2 tri 1724 1711 1704
3438 2 tri 1741 1733 1716
3439 2 tri 1724 1704 1718
3440 2 tri 1724 1746 1740
3441 2 tri 1756 295 301
3442 2 tri 1765 295 1756
3443 2 tri 1782 1789 1776
3444 2 tri 1724 1740 1728
3445 2 tri 1740 301 307
3446 2 tri 1728 307 313
3447 2 tri 1740 1746 301
3448 2 tri 1756 301 1746
3449 2 tri 295 1772 301
3450 2 tri 1780 1782 1772
3451 2 tri 1782 1776 1772
3452 2 tri 295 1780 1772
3453 2 tri 1780 1791 1782
3454 2 tri 1789 1795 1796
3455 2 tri 283 1787 1780
3456 2 tri 295 283 1780
3457 2 tri 1782 1791 1795
3458 2 tri 1780 1787 1791
3459 2 tri 1787 283 281
3460 2 tri 1756 1739 1751
3461 2 tri 1765 283 295
3462 2 tri 1765 1771 283
3463 2 tri 1746 1739 1756
3464 2 tri 1718 1716 1733
3465 2 tri 1718 1739 1724
3466 2 tri 1733 1751 1739
3467 2 tri 1741 1751 1733
3468 2 tri 1760 1771 1751
3469 2 tri 1700 1727 1702
3470 2 tri 1742 1755 1727
3471 2 tri 1725 1742 1727
3472 2 tri 1727 1748 1722
3473 2 tri 1755 1767 1748
3474 2 tri 1771 1760 1777
3475 2 tri 283 1771 281
3476 2 tri 1765 1751 1771
3477 2 tri 1771 1777 281
3478 3 tri 2173 2142 2178
3479 3 tri 1979 1998 1981
3480 3 tri 1980 1965 1993
3481 3 tri 1988 2011 1998
3482 3 tri 2383 2370 2381
3483 3 tri 2305 2320 2336
3484 3 tri 2020 2013 1997
3485 3 tri 2247 2249 2268
3486 3 tri 2340 2325 2319
3487 3 tri 1859 1875 1858
3488 3 tri 2187 2201 2212
3489 3 tri 1004 1023 1905
3490 3 tri 2312 2307 2322
3491 3 tri 2155 2178 2142
3492 3 tri 2344 2320 2330
3493 3 tri 1839 1858 1837
3494 3 tri 1852 1837 1858
3495 3 tri 1875 1890 1870
3496 3 tri 1893 1897 1872
3497 3 tri 2076 2051 2062
3498 3 tri 2112 2082 2105
3499 3 tri 2126 2143 2145
3500 3 tri 2124 2141 2117
3501 3 tri 1979 1960 1971
3502 3 tri 2124 2117 2100
3503 3 tri 1988 2003 2011
3504 3 tri 800 2059 2077
3505 3 tri 1913 1907 1891
3506 3 tri 1951 1965 1980
3507 3 tri 2034 2021 2049
3508 3 tri 1807 1816 1806
3509 3 tri 1816 1836 1832
3510 3 tri 2056 2038 2046
3511 3 tri 2268 2290 2286
3512 3 tri 1856 1861 1841
3513 3 tri 2011 2021 1998
3514 3 tri 2103 2089 2073
3515 3 tri 2176 2153 2168
3516 3 tri 2168 2147 2173
3517 3 tri 2153 2130 2132
3518 3 tri 2199 2197 2222
3519 3 tri 2237 2232 2200
3520 3 tri 2266 2244 2247
3521 3 tri 2232 2198 2200
3522 3 tri 2327 2329 2349
3523 3 tri 2251 2249 2224
3524 3 tri 2382 2361 2371
3525 3 tri 2271 2268 2249
3526 3 tri 2374 2371 2352
3527 3 tri 2324 2287 2305
3528 3 tri 2336 2324 2305
3529 3 tri 476 513 2285
3530 3 tri 706 2154 682
3531 3 tri 2163 2177 2148
3532 3 tri 2366 2354 2370
3533 3 tri 2239 2242 2217
3534 3 tri 2161 2148 2177
3535 3 tri 2022 2011 2003
3536 3 tri 2238 2205 2212
3537 3 tri 2103 2142 2123
3538 3 tri 2180 2196 2166
3539 3 tri 2248 2231 2241
3540 3 tri 2300 2310 2292
3541 3 tri 1916 1912 1896
3542 3 tri 2217 2242 2234
3543 3 tri 2225 2231 2248
3544 3 tri 2246 2275 2269
3545 3 tri 2293 2308 2320
3546 3 tri 2338 2351 2332
3547 3 tri 2108 2116 2091
3548 3 tri 1848 1834 1852
3549 3 tri 1870 1858 1875
3550 3 tri 1875 1896 1890
3551 3 tri 1977 1956 1987
3552 3 tri 1887 1880 1865
3553 3 tri 1942 1916 1920
3554 3 tri 1890 1912 1910
3555 3 tri 1875 1859 1877
3556 3 tri 2087 2054 2064
3557 3 tri 1976 1986 913
3558 3 tri 1996 1963 1972
3559 3 tri 1990 1977 2008
3560 3 tri 2016 2054 2041
3561 3 tri 1968 1994 2000
3562 3 tri 2140 2118 2152
3563 3 tri 2028 2054 2016
3564 3 tri 2140 2108 2118
3565 3 tri 2069 2048 2060
3566 3 tri 2062 2041 2075
3567 3 tri 2097 2111 751
3568 3 tri 2036 2061 2049
3569 3 tri 1941 961 982
3570 3 tri 1928 1910 1932
3571 3 tri 1947 1941 1926
3572 3 tri 913 2003 1988
3573 3 tri 2005 2024 2019
3574 3 tri 2036 2021 2011
3575 3 tri 1842 1854 1838
3576 3 tri 1971 936 1988
3577 3 tri 1004 982 1931
3578 3 tri 1926 1909 1930
3579 3 tri 2055 2086 2053
3580 3 tri 1919 1940 1925
3581 3 tri 855 2052 2032
3582 3 tri 2125 2117 2141
3583 3 tri 2042 2015 2034
3584 3 tri 1975 1997 1995
3585 3 tri 2125 2098 2117
3586 3 tri 2187 2161 2177
3587 3 tri 2023 2053 2029
3588 3 tri 1805 1814 1813
3589 3 tri 2021 2007 1998
3590 3 tri 1993 1965 1981
3591 3 tri 1945 1929 1931
3592 3 tri 1850 1829 1851
3593 3 tri 1879 1899 1906
3594 3 tri 1884 1911 1881
3595 3 tri 1053 1876 1855
3596 3 tri 1871 1849 1855
3597 3 tri 1842 1838 1823
3598 3 tri 1889 1871 1891
3599 3 tri 1849 1866 1845
3600 3 tri 1889 1866 1871
3601 3 tri 1830 1815 1817
3602 3 tri 1816 1818 1836
3603 3 tri 1869 1866 1889
3604 3 tri 1826 1815 1830
3605 3 tri 1899 1889 1919
3606 3 tri 1821 1843 1840
3607 3 tri 2035 2046 2026
3608 3 tri 1853 1847 1869
3609 3 tri 1922 1935 1952
3610 3 tri 1851 1829 1832
3611 3 tri 1935 1906 1925
3612 3 tri 1938 1933 1918
3613 3 tri 1922 1892 1906
3614 3 tri 1840 1836 1818
3615 3 tri 1893 1903 1917
3616 3 tri 1822 1808 1813
3617 3 tri 1897 1915 1894
3618 3 tri 1934 1938 1915
3619 3 tri 2245 2244 2260
3620 3 tri 2044 2057 2065
3621 3 tri 2095 2109 2113
3622 3 tri 2070 2046 2058
3623 3 tri 2038 2056 2057
3624 3 tri 2093 2110 2090
3625 3 tri 2099 2095 2113
3626 3 tri 1991 2002 2009
3627 3 tri 1967 1983 1974
3628 3 tri 1937 1950 1954
3629 3 tri 2018 2025 2009
3630 3 tri 1939 1911 1922
3631 3 tri 2006 1980 1993
3632 3 tri 1978 1985 2004
3633 3 tri 2058 2043 2067
3634 3 tri 1967 1950 1958
3635 3 tri 2103 2086 2122
3636 3 tri 1985 1982 2010
3637 3 tri 1999 1973 1989
3638 3 tri 2043 2058 2035
3639 3 tri 2093 2104 2114
3640 3 tri 2068 2061 2045
3641 3 tri 2125 2148 2136
3642 3 tri 2100 2117 2098
3643 3 tri 2097 2077 2092
3644 3 tri 2107 2136 2121
3645 3 tri 2148 2161 2136
3646 3 tri 2141 2163 2148
3647 3 tri 2187 2181 2161
3648 3 tri 2191 2213 2178
3649 3 tri 2258 2273 2298
3650 3 tri 2251 2222 2250
3651 3 tri 2199 2222 2224
3652 3 tri 2090 2110 2109
3653 3 tri 2197 2198 2218
3654 3 tri 2132 2168 2153
3655 3 tri 2200 2178 2213
3656 3 tri 2093 2090 2070
3657 3 tri 2109 2095 2090
3658 3 tri 2188 2193 2174
3659 3 tri 2150 2130 2153
3660 3 tri 2266 2268 2286
3661 3 tri 2263 2280 2281
3662 3 tri 2113 2109 2129
3663 3 tri 2186 2164 2170
3664 3 tri 2224 2249 2226
3665 3 tri 2188 2167 2185
3666 3 tri 2250 2222 2218
3667 3 tri 2224 2207 2199
3668 3 tri 2226 2207 2224
3669 3 tri 2206 2209 2188
3670 3 tri 2244 2230 2227
3671 3 tri 2299 2309 2311
3672 3 tri 2280 2299 2295
3673 3 tri 2232 2250 2218
3674 3 tri 2313 2339 2329
3675 3 tri 2339 2325 2347
3676 3 tri 2330 2320 2308
3677 3 tri 2344 2336 2320
3678 3 tri 2360 2374 2352
3679 3 tri 2304 2273 2287
3680 3 tri 2198 2232 2218
3681 3 tri 2237 2252 2273
3682 3 tri 2264 2238 2235
3683 3 tri 2191 2228 2213
3684 3 tri 2284 2264 2256
3685 3 tri 2276 2305 2261
3686 3 tri 2203 2219 2221
3687 3 tri 2338 2328 2341
3688 3 tri 2366 2370 2383
3689 3 tri 2257 2265 2282
3690 3 tri 2383 2391 2392
3691 3 tri 2362 2354 2342
3692 3 tri 2380 2392 2390
3693 3 tri 2389 2378 2387
3694 3 tri 2364 2365 2353
3695 3 tri 2322 2328 2312
3696 3 tri 2365 2362 2351
3697 3 tri 2377 2386 2387
3698 3 tri 266 2356 2367
3699 3 tri 2192 2201 2177
3700 3 tri 2285 2278 2296
3701 3 tri 2318 2302 2312
3702 3 tri 2307 476 435
3703 3 tri 2233 2215 2202
3704 3 tri 2272 2288 2283
3705 3 tri 2270 2279 2292
3706 3 tri 2283 2302 2300
3707 3 tri 2240 2262 2255
3708 3 tri 2262 2283 2279
3709 3 tri 2300 2279 2283
3710 3 tri 2270 2284 2256
3711 3 tri 2120 2124 2102
3712 3 tri 2162 2157 2175
3713 3 tri 2125 2141 2148
3714 3 tri 2138 2120 729
3715 3 tri 2097 773 2077
3716 3 tri 2084 800 773
3717 3 tri 2111 729 751
3718 3 tri 2162 2175 2182
3719 3 tri 2126 2127 2106
3720 3 tri 2192 2182 2202
3721 3 tri 2172 659 682
3722 3 tri 611 633 2208
3723 3 tri 2283 2262 2272
3724 3 tri 2203 2202 2190
3725 3 tri 2253 2236 582
3726 3 tri 2183 2160 2171
3727 3 tri 548 2267 513
3728 3 tri 2216 2231 2204
3729 3 tri 2083 2076 2101
3730 3 tri 2134 2154 706
3731 3 tri 2108 2091 2075
3732 3 tri 2219 611 2236
3733 3 tri 2133 2143 2116
3734 3 tri 2062 2031 2041
3735 3 tri 2017 2050 2037
3736 3 tri 2158 2152 2128
3737 3 tri 2096 2074 2115
3738 3 tri 2179 2194 2158
3739 3 tri 2171 2195 2183
3740 3 tri 2257 2242 2265
3741 3 tri 2282 2289 2306
3742 3 tri 2135 2158 2115
3743 3 tri 2316 391 435
3744 3 tri 2246 2223 2254
3745 3 tri 2282 2306 2296
3746 3 tri 2285 2267 2259
3747 3 tri 2303 2285 2296
3748 3 tri 513 2272 548
3749 3 tri 2303 476 2285
3750 3 tri 2307 2302 2288
3751 3 tri 2355 2358 2363
3752 3 tri 2369 2372 2363
3753 3 tri 2372 2369 2379
3754 3 tri 2346 2337 347
3755 3 tri 435 2303 2316
3756 3 tri 303 347 2343
3757 3 tri 2254 2223 2220
3758 3 tri 2321 2306 2314
3759 3 tri 2331 2343 347
3760 3 tri 1834 1837 1852
3761 3 tri 1859 1858 1839
3762 3 tri 1865 1848 1852
3763 3 tri 1880 1900 1882
3764 3 tri 1852 1858 1870
3765 3 tri 1870 1865 1852
3766 3 tri 1844 1864 1842
3767 3 tri 1910 1904 1887
3768 3 tri 1885 1882 1909
3769 3 tri 1831 1834 1848
3770 3 tri 1842 1864 1854
3771 3 tri 1846 1848 1862
3772 3 tri 1886 1885 1908
3773 3 tri 1831 1846 1828
3774 3 tri 1887 1865 1870
3775 3 tri 1844 1846 1863
3776 3 tri 1831 1848 1846
3777 3 tri 1846 1862 1863
3778 3 tri 1848 1865 1862
3779 3 tri 1865 1880 1862
3780 3 tri 1923 1928 1946
3781 3 tri 1923 1900 1904
3782 3 tri 1885 1863 1882
3783 3 tri 1862 1882 1863
3784 3 tri 1862 1880 1882
3785 3 tri 1900 1909 1882
3786 3 tri 1905 1924 1004
3787 3 tri 1923 1909 1900
3788 3 tri 1908 1885 1909
3789 3 tri 1946 1930 1923
3790 3 tri 1947 1966 1959
3791 3 tri 1880 1904 1900
3792 3 tri 1928 1953 1946
3793 3 tri 1909 1923 1930
3794 3 tri 1904 1928 1923
3795 3 tri 1910 1928 1904
3796 3 tri 1910 1912 1932
3797 3 tri 1956 1932 1936
3798 3 tri 1953 1928 1932
3799 3 tri 1890 1887 1870
3800 3 tri 1904 1880 1887
3801 3 tri 1887 1890 1910
3802 3 tri 1875 1877 1896
3803 3 tri 1896 1912 1890
3804 3 tri 1898 1896 1877
3805 3 tri 1898 1916 1896
3806 3 tri 1920 1916 1898
3807 3 tri 1942 1936 1916
3808 3 tri 1936 1912 1916
3809 3 tri 1963 1936 1942
3810 3 tri 1932 1912 1936
3811 3 tri 1944 1942 1920
3812 3 tri 1963 1956 1936
3813 3 tri 2028 2037 2064
3814 3 tri 1972 1963 1942
3815 3 tri 1977 1953 1956
3816 3 tri 1953 1932 1956
3817 3 tri 1944 1972 1942
3818 3 tri 1987 1956 1963
3819 3 tri 1968 1972 1944
3820 3 tri 1996 2016 1987
3821 3 tri 1972 2000 1996
3822 3 tri 2016 2041 2008
3823 3 tri 2096 2128 2118
3824 3 tri 2017 2037 2000
3825 3 tri 1968 2000 1972
3826 3 tri 1994 2017 2000
3827 3 tri 2115 2158 2128
3828 3 tri 2028 2064 2054
3829 3 tri 2037 2050 2074
3830 3 tri 2075 2041 2054
3831 3 tri 2031 2008 2041
3832 3 tri 2076 2062 2091
3833 3 tri 2051 2031 2062
3834 3 tri 1963 1996 1987
3835 3 tri 2000 2037 2028
3836 3 tri 2016 2008 1987
3837 3 tri 1992 2014 2005
3838 3 tri 1996 2028 2016
3839 3 tri 1996 2000 2028
3840 3 tri 2031 2012 2008
3841 3 tri 2031 2051 2030
3842 3 tri 2024 2014 2039
3843 3 tri 2012 2031 2030
3844 3 tri 2051 2039 2030
3845 3 tri 2019 855 883
3846 3 tri 2069 2060 2083
3847 3 tri 2039 2051 2060
3848 3 tri 2060 2048 2039
3849 3 tri 883 2032 2022
3850 3 tri 2069 2059 2048
3851 3 tri 2077 773 800
3852 3 tri 1992 2005 1984
3853 3 tri 2040 2048 2059
3854 3 tri 2030 2014 2012
3855 3 tri 2030 2039 2014
3856 3 tri 2014 2024 2005
3857 3 tri 2039 2048 2024
3858 3 tri 1969 1984 1966
3859 3 tri 2005 2001 1986
3860 3 tri 1977 1990 1970
3861 3 tri 2012 2014 1992
3862 3 tri 2008 1977 1987
3863 3 tri 2008 2012 1990
3864 3 tri 1992 1990 2012
3865 3 tri 1970 1946 1953
3866 3 tri 1977 1970 1953
3867 3 tri 1949 1930 1946
3868 3 tri 1992 1970 1990
3869 3 tri 1992 1984 1969
3870 3 tri 1970 1969 1946
3871 3 tri 1959 936 961
3872 3 tri 1969 1966 1949
3873 3 tri 1986 2001 913
3874 3 tri 1946 1969 1949
3875 3 tri 1970 1992 1969
3876 3 tri 982 1924 1941
3877 3 tri 1947 1930 1949
3878 3 tri 1908 1926 1924
3879 3 tri 1908 1909 1926
3880 3 tri 1023 1895 1039
3881 3 tri 1914 1023 1004
3882 3 tri 1971 1948 961
3883 3 tri 1004 1924 982
3884 3 tri 1926 1941 1924
3885 3 tri 1926 1930 1947
3886 3 tri 1976 1959 1966
3887 3 tri 961 1941 1959
3888 3 tri 1966 1947 1949
3889 3 tri 1959 1941 1947
3890 3 tri 1959 1976 936
3891 3 tri 1966 1984 1986
3892 3 tri 1966 1986 1976
3893 3 tri 1984 2005 1986
3894 3 tri 2005 2019 2001
3895 3 tri 2024 2048 2040
3896 3 tri 2024 2040 2019
3897 3 tri 2059 827 2040
3898 3 tri 2068 2052 800
3899 3 tri 2052 855 827
3900 3 tri 2040 855 2019
3901 3 tri 2040 827 855
3902 3 tri 2100 2081 2084
3903 3 tri 2045 2032 2052
3904 3 tri 1976 913 936
3905 3 tri 883 855 2032
3906 3 tri 2001 883 913
3907 3 tri 883 2022 2003
3908 3 tri 913 883 2003
3909 3 tri 2001 2019 883
3910 3 tri 1981 1961 1979
3911 3 tri 936 913 1988
3912 3 tri 2045 2022 2032
3913 3 tri 2036 2011 2022
3914 3 tri 2022 2045 2036
3915 3 tri 2068 2084 2081
3916 3 tri 2045 2061 2036
3917 3 tri 2045 2052 2068
3918 3 tri 2071 2049 2061
3919 3 tri 2021 2036 2049
3920 3 tri 2055 2023 2033
3921 3 tri 2015 2007 2034
3922 3 tri 1981 2007 1993
3923 3 tri 1981 1998 2007
3924 3 tri 2021 2034 2007
3925 3 tri 2049 2063 2034
3926 3 tri 961 936 1971
3927 3 tri 1981 1965 1961
3928 3 tri 1960 1979 1961
3929 3 tri 1988 1998 1979
3930 3 tri 1945 1960 1961
3931 3 tri 1948 982 961
3932 3 tri 1979 1971 1988
3933 3 tri 1960 1948 1971
3934 3 tri 1948 1945 1931
3935 3 tri 1940 1965 1951
3936 3 tri 1945 1948 1960
3937 3 tri 1931 982 1948
3938 3 tri 1929 1919 1907
3939 3 tri 1940 1961 1965
3940 3 tri 1891 1895 1913
3941 3 tri 1945 1961 1940
3942 3 tri 1929 1940 1919
3943 3 tri 1929 1945 1940
3944 3 tri 1891 1871 1876
3945 3 tri 1891 1907 1889
3946 3 tri 1919 1889 1907
3947 3 tri 1919 1925 1899
3948 3 tri 1830 1845 1826
3949 3 tri 1866 1847 1845
3950 3 tri 1835 1855 1849
3951 3 tri 1871 1866 1849
3952 3 tri 1871 1855 1876
3953 3 tri 1835 1817 1819
3954 3 tri 1931 1913 1914
3955 3 tri 1891 1876 1895
3956 3 tri 1929 1913 1931
3957 3 tri 1929 1907 1913
3958 3 tri 1931 1914 1004
3959 3 tri 1913 1895 1914
3960 3 tri 1908 1905 1886
3961 3 tri 1895 1876 1039
3962 3 tri 1905 1023 1888
3963 3 tri 1914 1895 1023
3964 3 tri 1868 1864 1886
3965 3 tri 1864 1885 1886
3966 3 tri 1886 1905 1888
3967 3 tri 1908 1924 1905
3968 3 tri 1885 1864 1863
3969 3 tri 1886 1888 1868
3970 3 tri 1039 1053 1868
3971 3 tri 1854 1864 1868
3972 3 tri 1888 1039 1868
3973 3 tri 1053 1062 1854
3974 3 tri 1062 1053 1855
3975 3 tri 1854 1868 1053
3976 3 tri 1023 1039 1888
3977 3 tri 1876 1053 1039
3978 3 tri 1844 1863 1864
3979 3 tri 1846 1844 1828
3980 3 tri 1842 1823 1824
3981 3 tri 1824 1844 1842
3982 3 tri 1824 1828 1844
3983 3 tri 1820 1823 1838
3984 3 tri 1062 1855 1835
3985 3 tri 1820 1838 1062
3986 3 tri 1830 1835 1849
3987 3 tri 1819 1820 1062
3988 3 tri 1819 1062 1835
3989 3 tri 1838 1854 1062
3990 3 tri 1812 1826 1827
3991 3 tri 1835 1830 1817
3992 3 tri 1849 1845 1830
3993 3 tri 1825 1843 1821
3994 3 tri 1810 1811 1825
3995 3 tri 1826 1812 1815
3996 3 tri 1847 1826 1845
3997 3 tri 1827 1811 1812
3998 3 tri 1879 1853 1869
3999 3 tri 1827 1826 1847
4000 3 tri 1879 1869 1899
4001 3 tri 1847 1866 1869
4002 3 tri 1906 1899 1925
4003 3 tri 1869 1889 1899
4004 3 tri 1884 1867 1892
4005 3 tri 1853 1825 1827
4006 3 tri 1935 1922 1906
4007 3 tri 1892 1879 1906
4008 3 tri 1853 1827 1847
4009 3 tri 1825 1811 1827
4010 3 tri 1867 1843 1853
4011 3 tri 1860 1836 1840
4012 3 tri 1867 1853 1879
4013 3 tri 1843 1825 1853
4014 3 tri 1809 1821 1818
4015 3 tri 1843 1860 1840
4016 3 tri 1892 1867 1879
4017 3 tri 1860 1843 1867
4018 3 tri 1867 1884 1860
4019 3 tri 1892 1922 1911
4020 3 tri 1957 1927 1939
4021 3 tri 1911 1884 1892
4022 3 tri 1860 1881 1857
4023 3 tri 1860 1884 1881
4024 3 tri 1952 1939 1922
4025 3 tri 1903 1881 1911
4026 3 tri 1851 1832 1857
4027 3 tri 1893 1874 1881
4028 3 tri 1836 1857 1832
4029 3 tri 1836 1860 1857
4030 3 tri 1809 1818 1807
4031 3 tri 1814 1816 1832
4032 3 tri 1807 1818 1816
4033 3 tri 1821 1809 1810
4034 3 tri 1825 1821 1810
4035 3 tri 1840 1818 1821
4036 3 tri 1816 1814 1806
4037 3 tri 1813 1804 1805
4038 3 tri 1813 1814 1829
4039 3 tri 1805 1806 1814
4040 3 tri 1822 1813 1833
4041 3 tri 1814 1832 1829
4042 3 tri 1881 1874 1857
4043 3 tri 1850 1833 1829
4044 3 tri 1833 1813 1829
4045 3 tri 1808 1804 1813
4046 3 tri 1872 1850 1851
4047 3 tri 1883 1878 1901
4048 3 tri 1850 1856 1833
4049 3 tri 1833 1841 1822
4050 3 tri 1856 1841 1833
4051 3 tri 1873 1878 1856
4052 3 tri 1883 1901 1902
4053 3 tri 1878 1894 1901
4054 3 tri 1861 1878 1883
4055 3 tri 1901 1918 1902
4056 3 tri 1934 1955 1938
4057 3 tri 1901 1894 1915
4058 3 tri 1902 1918 1921
4059 3 tri 1901 1915 1918
4060 3 tri 1856 1878 1861
4061 3 tri 1873 1850 1872
4062 3 tri 1878 1873 1894
4063 3 tri 1893 1881 1903
4064 3 tri 1850 1873 1856
4065 3 tri 1872 1897 1873
4066 3 tri 1851 1874 1872
4067 3 tri 1851 1857 1874
4068 3 tri 1897 1893 1917
4069 3 tri 1872 1874 1893
4070 3 tri 1915 1897 1917
4071 3 tri 1894 1873 1897
4072 3 tri 1921 1918 1933
4073 3 tri 1975 1967 1958
4074 3 tri 1938 1918 1915
4075 3 tri 2002 1983 1995
4076 3 tri 1954 1950 1967
4077 3 tri 1974 1983 1991
4078 3 tri 1967 1975 1983
4079 3 tri 1983 2002 1991
4080 3 tri 1954 1967 1974
4081 3 tri 2009 2002 2018
4082 3 tri 2025 2018 2038
4083 3 tri 2026 2018 2002
4084 3 tri 2026 2038 2018
4085 3 tri 2038 2026 2046
4086 3 tri 2002 1995 2013
4087 3 tri 2070 2056 2046
4088 3 tri 2044 2025 2038
4089 3 tri 2090 2072 2070
4090 3 tri 2078 2095 2080
4091 3 tri 2038 2057 2044
4092 3 tri 2078 2090 2095
4093 3 tri 2046 2035 2058
4094 3 tri 2013 1995 1997
4095 3 tri 1997 2004 2020
4096 3 tri 2027 2047 2043
4097 3 tri 2029 2027 2010
4098 3 tri 2020 2035 2013
4099 3 tri 2086 2073 2053
4100 3 tri 2067 2043 2047
4101 3 tri 1982 1985 1964
4102 3 tri 2004 1997 1978
4103 3 tri 2010 2004 1985
4104 3 tri 2027 2043 2020
4105 3 tri 2026 2013 2035
4106 3 tri 2026 2002 2013
4107 3 tri 2027 2020 2004
4108 3 tri 2043 2035 2020
4109 3 tri 1997 1975 1978
4110 3 tri 1950 1933 1938
4111 3 tri 1983 1975 1995
4112 3 tri 1958 1955 1978
4113 3 tri 1937 1933 1950
4114 3 tri 1937 1921 1933
4115 3 tri 1917 1934 1915
4116 3 tri 1958 1950 1938
4117 3 tri 1903 1927 1917
4118 3 tri 1943 1955 1934
4119 3 tri 1917 1943 1934
4120 3 tri 1964 1985 1978
4121 3 tri 1938 1955 1958
4122 3 tri 1943 1964 1955
4123 3 tri 1957 1964 1943
4124 3 tri 1957 1982 1964
4125 3 tri 1958 1978 1975
4126 3 tri 1955 1964 1978
4127 3 tri 1927 1957 1943
4128 3 tri 1980 1962 1951
4129 3 tri 1939 1973 1957
4130 3 tri 2010 2027 2004
4131 3 tri 1917 1927 1943
4132 3 tri 1903 1911 1927
4133 3 tri 1973 1939 1952
4134 3 tri 1927 1911 1939
4135 3 tri 1951 1935 1925
4136 3 tri 1962 1952 1935
4137 3 tri 1935 1951 1962
4138 3 tri 1925 1940 1951
4139 3 tri 1957 1973 1982
4140 3 tri 1952 1962 1989
4141 3 tri 2015 2006 1993
4142 3 tri 1989 1962 1980
4143 3 tri 2023 1989 2006
4144 3 tri 1973 1952 1989
4145 3 tri 1980 2006 1989
4146 3 tri 2082 2055 2066
4147 3 tri 2007 2015 1993
4148 3 tri 2066 2063 2088
4149 3 tri 2047 2027 2029
4150 3 tri 1982 1973 1999
4151 3 tri 1999 2010 1982
4152 3 tri 2029 2053 2047
4153 3 tri 1989 2023 1999
4154 3 tri 2006 2015 2033
4155 3 tri 1999 2029 2010
4156 3 tri 1999 2023 2029
4157 3 tri 2066 2055 2033
4158 3 tri 2023 2006 2033
4159 3 tri 2015 2042 2033
4160 3 tri 2034 2063 2042
4161 3 tri 2023 2055 2053
4162 3 tri 2033 2042 2066
4163 3 tri 2063 2066 2042
4164 3 tri 2082 2086 2055
4165 3 tri 2063 2085 2088
4166 3 tri 2063 2049 2071
4167 3 tri 2067 2073 2089
4168 3 tri 2047 2053 2073
4169 3 tri 2088 2082 2066
4170 3 tri 2088 2107 2121
4171 3 tri 2088 2105 2082
4172 3 tri 2121 2136 2151
4173 3 tri 2082 2112 2086
4174 3 tri 2139 2121 2151
4175 3 tri 2085 2107 2088
4176 3 tri 2085 2098 2107
4177 3 tri 2088 2121 2105
4178 3 tri 2136 2161 2151
4179 3 tri 2181 2151 2161
4180 3 tri 2139 2105 2121
4181 3 tri 2178 2155 2191
4182 3 tri 2139 2151 2169
4183 3 tri 2212 2181 2187
4184 3 tri 2169 2151 2181
4185 3 tri 2229 2243 2256
4186 3 tri 2212 2205 2181
4187 3 tri 2200 2173 2178
4188 3 tri 2142 2122 2155
4189 3 tri 2181 2205 2169
4190 3 tri 2228 2261 2252
4191 3 tri 2112 2122 2086
4192 3 tri 2112 2139 2155
4193 3 tri 2191 2155 2169
4194 3 tri 2112 2105 2139
4195 3 tri 2112 2155 2122
4196 3 tri 2139 2169 2155
4197 3 tri 2110 2114 2130
4198 3 tri 2123 2142 2147
4199 3 tri 2132 2147 2168
4200 3 tri 2132 2104 2123
4201 3 tri 2176 2170 2150
4202 3 tri 2176 2150 2153
4203 3 tri 2168 2173 2198
4204 3 tri 2147 2142 2173
4205 3 tri 2199 2170 2176
4206 3 tri 2170 2146 2150
4207 3 tri 2198 2197 2168
4208 3 tri 2199 2207 2186
4209 3 tri 2149 2137 2131
4210 3 tri 2109 2110 2129
4211 3 tri 2164 2146 2170
4212 3 tri 2129 2130 2150
4213 3 tri 2058 2079 2070
4214 3 tri 2130 2129 2110
4215 3 tri 2079 2104 2093
4216 3 tri 2132 2130 2114
4217 3 tri 2123 2104 2089
4218 3 tri 2132 2114 2104
4219 3 tri 2132 2123 2147
4220 3 tri 2089 2103 2123
4221 3 tri 2073 2067 2047
4222 3 tri 2089 2104 2079
4223 3 tri 2086 2103 2073
4224 3 tri 2122 2142 2103
4225 3 tri 2056 2072 2057
4226 3 tri 2056 2070 2072
4227 3 tri 2067 2079 2058
4228 3 tri 2067 2089 2079
4229 3 tri 2079 2093 2070
4230 3 tri 2114 2110 2093
4231 3 tri 2057 2072 2078
4232 3 tri 2057 2078 2065
4233 3 tri 2072 2090 2078
4234 3 tri 2065 2078 2080
4235 3 tri 2149 2156 2137
4236 3 tri 2099 2080 2095
4237 3 tri 2119 2099 2113
4238 3 tri 2131 2137 2119
4239 3 tri 2174 2167 2188
4240 3 tri 2207 2206 2185
4241 3 tri 2211 2227 2230
4242 3 tri 2113 2131 2119
4243 3 tri 2167 2164 2185
4244 3 tri 2129 2131 2113
4245 3 tri 2146 2164 2149
4246 3 tri 2129 2146 2131
4247 3 tri 2129 2150 2146
4248 3 tri 2146 2149 2131
4249 3 tri 2164 2167 2149
4250 3 tri 2156 2167 2174
4251 3 tri 2156 2149 2167
4252 3 tri 2185 2186 2207
4253 3 tri 2185 2164 2186
4254 3 tri 2170 2199 2186
4255 3 tri 2176 2197 2199
4256 3 tri 2251 2224 2222
4257 3 tri 2249 2247 2226
4258 3 tri 2244 2227 2247
4259 3 tri 2206 2207 2226
4260 3 tri 2297 2325 2313
4261 3 tri 2271 2249 2251
4262 3 tri 2247 2227 2226
4263 3 tri 2227 2211 2209
4264 3 tri 2268 2266 2247
4265 3 tri 2245 2230 2244
4266 3 tri 2227 2209 2226
4267 3 tri 2188 2185 2206
4268 3 tri 2188 2209 2193
4269 3 tri 2206 2226 2209
4270 3 tri 2209 2211 2193
4271 3 tri 2299 2280 2286
4272 3 tri 2263 2245 2260
4273 3 tri 2280 2266 2286
4274 3 tri 2260 2244 2266
4275 3 tri 2271 2290 2268
4276 3 tri 2309 2299 2286
4277 3 tri 2260 2280 2263
4278 3 tri 2260 2266 2280
4279 3 tri 2280 2295 2281
4280 3 tri 2290 2309 2286
4281 3 tri 2311 2295 2299
4282 3 tri 2313 2309 2290
4283 3 tri 2329 2327 2309
4284 3 tri 2311 2309 2327
4285 3 tri 2329 2339 2349
4286 3 tri 2329 2309 2313
4287 3 tri 2339 2357 2349
4288 3 tri 2250 2274 2251
4289 3 tri 2352 2326 2324
4290 3 tri 2271 2297 2290
4291 3 tri 2258 2250 2232
4292 3 tri 2271 2274 2297
4293 3 tri 2271 2251 2274
4294 3 tri 2290 2297 2313
4295 3 tri 2340 2326 2350
4296 3 tri 2313 2325 2339
4297 3 tri 2301 2274 2277
4298 3 tri 2368 2347 2361
4299 3 tri 2357 2339 2347
4300 3 tri 2347 2368 2357
4301 3 tri 2376 2361 2382
4302 3 tri 2347 2325 2340
4303 3 tri 2368 2361 2376
4304 3 tri 2382 2371 2385
4305 3 tri 2350 2326 2352
4306 3 tri 2371 2388 2385
4307 3 tri 2361 2350 2371
4308 3 tri 2340 2319 2326
4309 3 tri 2360 2352 2336
4310 3 tri 2371 2350 2352
4311 3 tri 2297 2301 2325
4312 3 tri 2274 2250 2277
4313 3 tri 2361 2340 2350
4314 3 tri 2361 2347 2340
4315 3 tri 2298 2277 2258
4316 3 tri 2301 2297 2274
4317 3 tri 2298 2301 2277
4318 3 tri 2319 2325 2301
4319 3 tri 2222 2197 2218
4320 3 tri 2176 2168 2197
4321 3 tri 2273 2258 2237
4322 3 tri 2277 2250 2258
4323 3 tri 2237 2200 2213
4324 3 tri 2198 2173 2200
4325 3 tri 2232 2237 2258
4326 3 tri 2252 2287 2273
4327 3 tri 2324 2304 2287
4328 3 tri 2326 2319 2298
4329 3 tri 2304 2298 2273
4330 3 tri 2319 2301 2298
4331 3 tri 2326 2304 2324
4332 3 tri 2326 2298 2304
4333 3 tri 2213 2252 2237
4334 3 tri 2228 2191 2205
4335 3 tri 2264 2276 2238
4336 3 tri 2287 2252 2261
4337 3 tri 2261 2228 2238
4338 3 tri 2191 2169 2205
4339 3 tri 2213 2228 2252
4340 3 tri 2205 2238 2228
4341 3 tri 2201 2229 2212
4342 3 tri 2235 2238 2212
4343 3 tri 2270 2256 2243
4344 3 tri 2264 2235 2256
4345 3 tri 2238 2276 2261
4346 3 tri 2264 2284 2293
4347 3 tri 2323 2308 2292
4348 3 tri 2293 2276 2264
4349 3 tri 2308 2293 2284
4350 3 tri 2320 2305 2293
4351 3 tri 2292 2308 2284
4352 3 tri 2323 2342 2330
4353 3 tri 2323 2330 2308
4354 3 tri 2354 2344 2330
4355 3 tri 2261 2305 2287
4356 3 tri 2276 2293 2305
4357 3 tri 2380 2374 2360
4358 3 tri 2352 2324 2336
4359 3 tri 2390 2374 2380
4360 3 tri 2388 2371 2374
4361 3 tri 2374 2390 2388
4362 3 tri 2344 2360 2336
4363 3 tri 2344 2366 2360
4364 3 tri 2360 2366 2380
4365 3 tri 2344 2354 2366
4366 3 tri 2380 2383 2392
4367 3 tri 2380 2366 2383
4368 3 tri 2383 2381 2391
4369 3 tri 2370 2362 2381
4370 3 tri 2381 2389 2391
4371 3 tri 2381 2378 2389
4372 3 tri 2332 2342 2323
4373 3 tri 2354 2330 2342
4374 3 tri 2378 2362 2365
4375 3 tri 2370 2354 2362
4376 3 tri 2332 2351 2342
4377 3 tri 2362 2342 2351
4378 3 tri 2341 2353 2338
4379 3 tri 2363 2372 2373
4380 3 tri 2353 2365 2351
4381 3 tri 2378 2381 2362
4382 3 tri 2377 2378 2365
4383 3 tri 2377 2387 2378
4384 3 tri 2377 2373 2386
4385 3 tri 2377 2365 2364
4386 3 tri 2373 2384 2386
4387 3 tri 2373 2372 2384
4388 3 tri 2373 2364 2363
4389 3 tri 2372 2379 2384
4390 3 tri 2337 2346 2341
4391 3 tri 347 303 2346
4392 3 tri 2355 2363 2364
4393 3 tri 2358 2369 2363
4394 3 tri 2322 2337 2328
4395 3 tri 2346 2358 2355
4396 3 tri 2341 2355 2353
4397 3 tri 2341 2346 2355
4398 3 tri 2355 2364 2353
4399 3 tri 2373 2377 2364
4400 3 tri 2283 2288 2302
4401 3 tri 2272 513 2288
4402 3 tri 476 2307 2288
4403 3 tri 435 391 2322
4404 3 tri 435 2322 2307
4405 3 tri 391 347 2337
4406 3 tri 2328 2337 2341
4407 3 tri 2322 391 2337
4408 3 tri 2253 548 2272
4409 3 tri 582 2225 2248
4410 3 tri 2285 513 2267
4411 3 tri 476 2288 513
4412 3 tri 2202 2203 2221
4413 3 tri 582 548 2253
4414 3 tri 2262 2253 2272
4415 3 tri 2262 2240 2253
4416 3 tri 2253 2240 2236
4417 3 tri 2255 2243 2233
4418 3 tri 2318 2312 2328
4419 3 tri 2302 2307 2312
4420 3 tri 2332 2318 2338
4421 3 tri 2300 2302 2318
4422 3 tri 2328 2338 2318
4423 3 tri 2353 2351 2338
4424 3 tri 2292 2310 2323
4425 3 tri 2300 2318 2310
4426 3 tri 2310 2332 2323
4427 3 tri 2310 2318 2332
4428 3 tri 2270 2243 2255
4429 3 tri 2256 2235 2229
4430 3 tri 2279 2270 2255
4431 3 tri 2292 2284 2270
4432 3 tri 2262 2279 2255
4433 3 tri 2300 2292 2279
4434 3 tri 2163 2182 2192
4435 3 tri 2202 2221 2233
4436 3 tri 2212 2229 2235
4437 3 tri 2215 2243 2229
4438 3 tri 2240 2221 2236
4439 3 tri 2240 2255 2233
4440 3 tri 2240 2233 2221
4441 3 tri 2243 2215 2233
4442 3 tri 2124 2144 2141
4443 3 tri 2192 2202 2215
4444 3 tri 2144 2162 2163
4445 3 tri 2190 2202 2182
4446 3 tri 2229 2201 2215
4447 3 tri 2177 2163 2192
4448 3 tri 2177 2201 2187
4449 3 tri 2192 2215 2201
4450 3 tri 2071 2081 2098
4451 3 tri 2084 773 2102
4452 3 tri 2107 2125 2136
4453 3 tri 2107 2098 2125
4454 3 tri 2085 2071 2098
4455 3 tri 2085 2063 2071
4456 3 tri 2098 2081 2100
4457 3 tri 2071 2061 2081
4458 3 tri 2061 2068 2081
4459 3 tri 2052 827 800
4460 3 tri 2100 2102 2124
4461 3 tri 2100 2084 2102
4462 3 tri 773 751 2102
4463 3 tri 2138 706 2157
4464 3 tri 2141 2144 2163
4465 3 tri 2124 2120 2138
4466 3 tri 2163 2162 2182
4467 3 tri 2144 2138 2157
4468 3 tri 2124 2138 2144
4469 3 tri 2175 682 659
4470 3 tri 729 706 2138
4471 3 tri 2134 2111 2127
4472 3 tri 2068 800 2084
4473 3 tri 827 2059 800
4474 3 tri 2120 751 729
4475 3 tri 2120 2102 751
4476 3 tri 2077 2069 2092
4477 3 tri 2077 2059 2069
4478 3 tri 2111 2097 2092
4479 3 tri 751 773 2097
4480 3 tri 2165 2154 2145
4481 3 tri 2111 2092 2106
4482 3 tri 729 2134 706
4483 3 tri 729 2111 2134
4484 3 tri 682 2154 2172
4485 3 tri 2134 2127 2154
4486 3 tri 2175 659 2190
4487 3 tri 2165 2160 2183
4488 3 tri 2172 2189 659
4489 3 tri 611 582 2236
4490 3 tri 2144 2157 2162
4491 3 tri 706 682 2157
4492 3 tri 2182 2175 2190
4493 3 tri 2157 682 2175
4494 3 tri 659 2203 2190
4495 3 tri 659 2189 633
4496 3 tri 2221 2219 2236
4497 3 tri 633 2189 2208
4498 3 tri 2203 633 2219
4499 3 tri 2203 659 633
4500 3 tri 2183 2204 2189
4501 3 tri 2231 2216 2241
4502 3 tri 633 611 2219
4503 3 tri 2208 2225 611
4504 3 tri 2204 2183 2195
4505 3 tri 2189 2172 2165
4506 3 tri 2189 2204 2208
4507 3 tri 2195 2210 2216
4508 3 tri 2184 2210 2195
4509 3 tri 2184 2166 2196
4510 3 tri 2195 2216 2204
4511 3 tri 2210 2217 2234
4512 3 tri 2166 2159 2140
4513 3 tri 2184 2195 2171
4514 3 tri 2143 2171 2160
4515 3 tri 2159 2184 2171
4516 3 tri 2165 2145 2160
4517 3 tri 2154 2127 2145
4518 3 tri 2189 2165 2183
4519 3 tri 2172 2154 2165
4520 3 tri 2111 2106 2127
4521 3 tri 2092 2069 2083
4522 3 tri 2127 2126 2145
4523 3 tri 2101 2091 2116
4524 3 tri 2092 2083 2106
4525 3 tri 2060 2051 2076
4526 3 tri 2106 2101 2126
4527 3 tri 2106 2083 2101
4528 3 tri 2087 2108 2075
4529 3 tri 2091 2062 2075
4530 3 tri 2101 2076 2091
4531 3 tri 2083 2060 2076
4532 3 tri 2143 2126 2116
4533 3 tri 2126 2101 2116
4534 3 tri 2159 2133 2140
4535 3 tri 2159 2171 2143
4536 3 tri 2159 2143 2133
4537 3 tri 2160 2145 2143
4538 3 tri 2116 2108 2133
4539 3 tri 2087 2064 2096
4540 3 tri 2096 2118 2087
4541 3 tri 2128 2152 2118
4542 3 tri 2108 2087 2118
4543 3 tri 2075 2054 2087
4544 3 tri 2037 2074 2064
4545 3 tri 2074 2094 2115
4546 3 tri 2064 2074 2096
4547 3 tri 2050 2094 2074
4548 3 tri 2135 2179 2158
4549 3 tri 2096 2115 2128
4550 3 tri 2094 2135 2115
4551 3 tri 2194 2223 2214
4552 3 tri 2220 2223 2194
4553 3 tri 2158 2180 2152
4554 3 tri 2214 2246 2239
4555 3 tri 2166 2140 2152
4556 3 tri 2133 2108 2140
4557 3 tri 2180 2166 2152
4558 3 tri 2184 2159 2166
4559 3 tri 2184 2196 2217
4560 3 tri 2180 2194 2214
4561 3 tri 2184 2217 2210
4562 3 tri 2196 2214 2217
4563 3 tri 2158 2194 2180
4564 3 tri 2179 2220 2194
4565 3 tri 2180 2214 2196
4566 3 tri 2223 2246 2214
4567 3 tri 2254 2275 2246
4568 3 tri 2294 2275 2254
4569 3 tri 2239 2269 2265
4570 3 tri 2356 2345 2359
4571 3 tri 2275 2291 2269
4572 3 tri 2275 2294 2291
4573 3 tri 2317 2291 2294
4574 3 tri 2291 2289 2269
4575 3 tri 2291 2317 2314
4576 3 tri 2278 2282 2296
4577 3 tri 2334 2335 2348
4578 3 tri 2214 2239 2217
4579 3 tri 2246 2269 2239
4580 3 tri 2239 2265 2242
4581 3 tri 2269 2289 2265
4582 3 tri 2259 2241 2257
4583 3 tri 2216 2210 2234
4584 3 tri 2234 2241 2216
4585 3 tri 2234 2242 2257
4586 3 tri 611 2225 582
4587 3 tri 2208 2204 2225
4588 3 tri 2259 2248 2241
4589 3 tri 2225 2204 2231
4590 3 tri 548 2248 2267
4591 3 tri 548 582 2248
4592 3 tri 2306 2315 2296
4593 3 tri 435 476 2303
4594 3 tri 2259 2257 2278
4595 3 tri 2241 2234 2257
4596 3 tri 2285 2259 2278
4597 3 tri 2267 2248 2259
4598 3 tri 2257 2282 2278
4599 3 tri 2265 2289 2282
4600 3 tri 391 2331 347
4601 3 tri 2333 2321 2334
4602 3 tri 303 2343 2356
4603 3 tri 2321 2315 2306
4604 3 tri 2296 2315 2303
4605 3 tri 2331 391 2316
4606 3 tri 2358 303 266
4607 3 tri 2358 2346 303
4608 3 tri 2369 266 228
4609 3 tri 2369 2358 266
4610 3 tri 2369 2375 2379
4611 3 tri 303 2356 266
4612 3 tri 2345 2334 2348
4613 3 tri 266 2367 228
4614 3 tri 2369 228 2375
4615 3 tri 2343 2345 2356
4616 3 tri 2343 2331 2333
4617 3 tri 2356 2359 2367
4618 3 tri 2316 2315 2331
4619 3 tri 2316 2303 2315
4620 3 tri 2343 2333 2345
4621 3 tri 2331 2315 2333
4622 3 tri 2289 2314 2306
4623 3 tri 2289 2291 2314
4624 3 tri 2335 2314 2317
4625 3 tri 2335 2334 2314
4626 3 tri 2333 2315 2321
4627 3 tri 2333 2334 2345
4628 3 tri 2321 2314 2334
4629 3 tri 2345 2348 2359
4630 4 tri 2614 2565 2585
4631 4 tri 2619 2639 2593
4632 4 tri 2520 2468 2524
4633 4 tri 2603 2598 2644
4634 4 tri 3193 3181 3131
4635 4 tri 2726 2704 2682
4636 4 tri 3347 3409 3391
4637 4 tri 3088 3077 3104
4638 4 tri 3842 3899 3871
4639 4 tri 2568 2580 2615
4640 4 tri 2524 2544 2580
4641 4 tri 2755 2767 2732
4642 4 tri 2714 2708 2670
4643 4 tri 2819 2813 2834
4644 4 tri 2947 2966 2972
4645 4 tri 3096 3068 3057
4646 4 tri 3911 3918 3880
4647 4 tri 2514 2540 2565
4648 4 tri 2445 2457 2499
4649 4 tri 3167 3187 3154
4650 4 tri 2460 2464 2507
4651 4 tri 2554 2528 2507
4652 4 tri 2833 2865 2828
4653 4 tri 2470 2413 2412
4654 4 tri 2851 2887 2880
4655 4 tri 2469 2432 2431
4656 4 tri 2418 2485 2419
4657 4 tri 2669 2703 2663
4658 4 tri 2535 2571 2583
4659 4 tri 2896 2918 2927
4660 4 tri 2692 2681 2725
4661 4 tri 3225 3204 3203
4662 4 tri 2829 2827 2807
4663 4 tri 3093 3050 3080
4664 4 tri 3598 3578 1974
4665 4 tri 3343 3310 3353
4666 4 tri 3365 3328 3374
4667 4 tri 3596 3587 3549
4668 4 tri 3308 3313 3255
4669 4 tri 3503 3481 3469
4670 4 tri 3713 3663 3710
4671 4 tri 3809 3841 3774
4672 4 tri 2602 2648 2635
4673 4 tri 3294 3239 3261
4674 4 tri 3555 1991 1974
4675 4 tri 3252 3291 3269
4676 4 tri 3820 3773 3807
4677 4 tri 3807 3794 3849
4678 4 tri 3375 3398 3412
4679 4 tri 3420 3398 3388
4680 4 tri 3741 3771 3803
4681 4 tri 2529 2551 2498
4682 4 tri 2488 2398 2397
4683 4 tri 2475 2499 2529
4684 4 tri 2666 2628 2639
4685 4 tri 2788 2802 2774
4686 4 tri 2853 2868 2876
4687 4 tri 3342 3294 3332
4688 4 tri 2911 2932 2923
4689 4 tri 2923 2932 2942
4690 4 tri 3001 3034 3036
4691 4 tri 2803 2805 2769
4692 4 tri 2928 2923 2942
4693 4 tri 2700 2686 2671
4694 4 tri 2775 2783 2808
4695 4 tri 2942 2966 2947
4696 4 tri 2691 2695 2727
4697 4 tri 2644 2598 2605
4698 4 tri 2997 3048 3046
4699 4 tri 2830 2881 2866
4700 4 tri 2979 2945 3000
4701 4 tri 2631 2653 2681
4702 4 tri 3157 3099 3155
4703 4 tri 2743 2776 2740
4704 4 tri 3046 2994 2997
4705 4 tri 3697 3707 3740
4706 4 tri 2704 2726 2745
4707 4 tri 2758 2735 2772
4708 4 tri 2916 2872 2906
4709 4 tri 2994 2952 2997
4710 4 tri 2554 2565 2602
4711 4 tri 2648 2693 2682
4712 4 tri 2757 2799 2772
4713 4 tri 2410 2409 2480
4714 4 tri 2463 2403 2402
4715 4 tri 2708 2693 2660
4716 4 tri 2708 2742 2693
4717 4 tri 2474 2410 2480
4718 4 tri 2461 2421 2455
4719 4 tri 2570 2555 2522
4720 4 tri 2423 2487 2424
4721 4 tri 2422 2461 2491
4722 4 tri 2713 2668 2665
4723 4 tri 2494 2447 2504
4724 4 tri 2646 2632 2662
4725 4 tri 2622 2578 2606
4726 4 tri 2613 2647 2632
4727 4 tri 2894 2890 2878
4728 4 tri 2497 2547 2532
4729 4 tri 2711 2684 2705
4730 4 tri 2791 2798 2820
4731 4 tri 2890 2869 2878
4732 4 tri 3013 2999 2984
4733 4 tri 3028 2995 3011
4734 4 tri 2841 2873 2855
4735 4 tri 2941 2981 2982
4736 4 tri 2950 2918 2920
4737 4 tri 2738 2750 2777
4738 4 tri 2484 2476 2535
4739 4 tri 3101 3080 3065
4740 4 tri 2988 2964 2973
4741 4 tri 2655 2710 2688
4742 4 tri 2582 2532 2547
4743 4 tri 2954 2910 2934
4744 4 tri 3032 2987 3018
4745 4 tri 2618 2665 2625
4746 4 tri 2733 2766 2721
4747 4 tri 2963 2995 2974
4748 4 tri 2842 2862 2825
4749 4 tri 3117 3108 3090
4750 4 tri 2958 2967 2934
4751 4 tri 3190 3169 3195
4752 4 tri 3108 2281 3079
4753 4 tri 3054 3041 3021
4754 4 tri 3559 3504 3529
4755 4 tri 3143 3115 3123
4756 4 tri 2281 3076 3079
4757 4 tri 3496 3463 3470
4758 4 tri 3486 3448 3483
4759 4 tri 3492 3501 3538
4760 4 tri 3135 3149 3121
4761 4 tri 3772 3763 3813
4762 4 tri 3080 3119 3093
4763 4 tri 3218 3200 3231
4764 4 tri 3432 3468 3466
4765 4 tri 3232 3273 3270
4766 4 tri 3071 3107 3082
4767 4 tri 3399 3430 3395
4768 4 tri 3505 3533 3519
4769 4 tri 3351 3326 3338
4770 4 tri 3510 3523 3479
4771 4 tri 3708 3742 3695
4772 4 tri 3888 3954 3955
4773 4 tri 3847 3894 3832
4774 4 tri 3907 3958 3865
4775 4 tri 3754 3715 3722
4776 4 tri 3590 3552 3568
4777 4 tri 1841 3834 3798
4778 4 tri 3765 3737 3719
4779 4 tri 3588 3550 3600
4780 4 tri 1883 3752 3712
4781 4 tri 3706 3737 3734
4782 4 tri 3941 3906 3940
4783 4 tri 1822 3900 3834
4784 4 tri 3938 3883 3869
4785 4 tri 3829 3793 3783
4786 4 tri 3859 3903 3820
4787 4 tri 3875 3929 3930
4788 4 tri 3649 3681 3635
4789 4 tri 3758 3805 3802
4790 4 tri 3732 3738 3781
4791 4 tri 3719 3749 3765
4792 4 tri 3839 3845 3895
4793 4 tri 3572 3569 3619
4794 4 tri 3508 3540 3483
4795 4 tri 3619 3629 3572
4796 4 tri 3039 2981 3012
4797 4 tri 3259 3206 3211
4798 4 tri 3355 2119 3333
4799 4 tri 3157 3138 3099
4800 4 tri 3157 3155 3211
4801 4 tri 3111 3110 3073
4802 4 tri 3102 3064 3110
4803 4 tri 3025 3008 3002
4804 4 tri 3278 3285 3246
4805 4 tri 3152 3198 3155
4806 4 tri 3472 3422 3417
4807 4 tri 3394 3342 3377
4808 4 tri 3163 3170 3137
4809 4 tri 3191 3217 3239
4810 4 tri 3276 3288 3307
4811 4 tri 3147 3170 3177
4812 4 tri 3336 3359 3371
4813 4 tri 3532 3566 3548
4814 4 tri 3586 3630 3605
4815 4 tri 3615 3623 3647
4816 4 tri 3615 3647 3640
4817 4 tri 3714 3743 3751
4818 4 tri 3703 3726 3675
4819 4 tri 3915 3899 3866
4820 4 tri 3686 3653 3672
4821 4 tri 3916 3899 3915
4822 4 tri 2397 2396 2444
4823 4 tri 2444 2475 2498
4824 4 tri 2502 2453 2520
4825 4 tri 2728 2702 2724
4826 4 tri 2520 2453 2468
4827 4 tri 2605 2649 2644
4828 4 tri 2716 2698 2686
4829 4 tri 2593 2628 2580
4830 4 tri 2649 2615 2659
4831 4 tri 2580 2544 2593
4832 4 tri 2671 2652 2636
4833 4 tri 2730 2732 2706
4834 4 tri 2636 2624 2599
4835 4 tri 2675 2671 2645
4836 4 tri 2975 3002 2985
4837 4 tri 2732 2748 2716
4838 4 tri 2898 2876 2889
4839 4 tri 3137 3112 3133
4840 4 tri 3096 3086 3120
4841 4 tri 3227 3213 3201
4842 4 tri 3133 3159 3163
4843 4 tri 2975 2965 2955
4844 4 tri 2985 2966 2965
4845 4 tri 3088 3104 3112
4846 4 tri 2789 2768 2754
4847 4 tri 2822 2813 2800
4848 4 tri 2965 2966 2942
4849 4 tri 3038 3025 3052
4850 4 tri 2959 2947 2972
4851 4 tri 2966 2985 2990
4852 4 tri 3068 3100 3070
4853 4 tri 2969 2970 3001
4854 4 tri 3114 3086 3085
4855 4 tri 3005 2986 2972
4856 4 tri 2931 2947 2959
4857 4 tri 2990 2985 3008
4858 4 tri 3034 3020 3057
4859 4 tri 3034 3001 3020
4860 4 tri 2691 2659 2695
4861 4 tri 2734 2722 2687
4862 4 tri 2819 2834 2847
4863 4 tri 2914 2909 2937
4864 4 tri 2748 2774 2764
4865 4 tri 2767 2778 2788
4866 4 tri 2853 2847 2834
4867 4 tri 2819 2793 2802
4868 4 tri 2793 2764 2774
4869 4 tri 2728 2754 2727
4870 4 tri 2789 2754 2775
4871 4 tri 2739 2748 2764
4872 4 tri 2764 2751 2739
4873 4 tri 2783 2793 2812
4874 4 tri 2628 2666 2659
4875 4 tri 2775 2808 2789
4876 4 tri 2685 2644 2687
4877 4 tri 2752 2717 2763
4878 4 tri 2585 2594 2629
4879 4 tri 2638 2643 2678
4880 4 tri 2660 2670 2708
4881 4 tri 2629 2594 2638
4882 4 tri 2787 2752 2795
4883 4 tri 2670 2678 2714
4884 4 tri 2833 2828 2795
4885 4 tri 2828 2872 2821
4886 4 tri 2769 2763 2722
4887 4 tri 2752 2787 2747
4888 4 tri 2937 2959 2970
4889 4 tri 2915 2951 2944
4890 4 tri 2952 2944 2997
4891 4 tri 3033 3036 3070
4892 4 tri 3048 2997 3022
4893 4 tri 3033 3004 3036
4894 4 tri 3033 3070 3073
4895 4 tri 3150 3191 3152
4896 4 tri 2916 2952 2960
4897 4 tri 3048 3064 3102
4898 4 tri 2952 2906 2944
4899 4 tri 2978 3022 2997
4900 4 tri 2814 2781 2821
4901 4 tri 2865 2902 2906
4902 4 tri 2871 2902 2865
4903 4 tri 2899 2867 2883
4904 4 tri 3000 2960 3023
4905 4 tri 3106 3092 3145
4906 4 tri 3072 3037 3098
4907 4 tri 2926 2881 2893
4908 4 tri 3180 3208 3167
4909 4 tri 3016 3061 3030
4910 4 tri 3134 3167 3124
4911 4 tri 3401 3376 3400
4912 4 tri 3214 3226 3252
4913 4 tri 3181 3180 3145
4914 4 tri 3061 3039 3092
4915 4 tri 3180 3223 3208
4916 4 tri 3081 3094 3118
4917 4 tri 3124 3167 3154
4918 4 tri 2922 2981 2941
4919 4 tri 2870 2904 2877
4920 4 tri 2930 2949 2917
4921 4 tri 3016 2981 3039
4922 4 tri 2866 2826 2830
4923 4 tri 2663 2699 2657
4924 4 tri 2824 2850 2799
4925 4 tri 2857 2893 2850
4926 4 tri 2704 2664 2682
4927 4 tri 2474 2459 2411
4928 4 tri 2814 2824 2786
4929 4 tri 2830 2826 2796
4930 4 tri 2725 2757 2772
4931 4 tri 2782 2826 2817
4932 4 tri 2817 2856 2811
4933 4 tri 2895 2874 2917
4934 4 tri 2555 2578 2526
4935 4 tri 2689 2696 2733
4936 4 tri 2555 2503 2522
4937 4 tri 2491 2487 2423
4938 4 tri 2623 2626 2663
4939 4 tri 2606 2578 2555
4940 4 tri 2621 2590 2577
4941 4 tri 2482 2523 2517
4942 4 tri 2564 2587 2538
4943 4 tri 2495 2517 2543
4944 4 tri 2579 2523 2519
4945 4 tri 2577 2590 2543
4946 4 tri 2570 2623 2606
4947 4 tri 2614 2585 2629
4948 4 tri 2598 2553 2605
4949 4 tri 2579 2556 2604
4950 4 tri 2653 2664 2709
4951 4 tri 2562 2557 2603
4952 4 tri 2465 2401 2450
4953 4 tri 2643 2603 2644
4954 4 tri 2557 2553 2598
4955 4 tri 2540 2514 2489
4956 4 tri 2463 2402 2465
4957 4 tri 2557 2508 2553
4958 4 tri 2557 2562 2510
4959 4 tri 2409 2460 2480
4960 4 tri 2464 2514 2507
4961 4 tri 2591 2554 2602
4962 4 tri 2507 2565 2554
4963 4 tri 2554 2591 2560
4964 4 tri 2470 2412 2459
4965 4 tri 2467 2404 2403
4966 4 tri 2460 2409 2408
4967 4 tri 2462 2467 2506
4968 4 tri 2404 2462 2405
4969 4 tri 2495 2417 2416
4970 4 tri 2495 2543 2505
4971 4 tri 2479 2538 2522
4972 4 tri 2526 2578 2545
4973 4 tri 2545 2487 2491
4974 4 tri 2625 2581 2618
4975 4 tri 2476 2424 2487
4976 4 tri 2689 2674 2640
4977 4 tri 2425 2476 2484
4978 4 tri 2654 2618 2620
4979 4 tri 2430 2481 2477
4980 4 tri 2429 2478 2481
4981 4 tri 2469 2477 2521
4982 4 tri 2478 2428 2492
4983 4 tri 2527 2566 2521
4984 4 tri 2651 2608 2627
4985 4 tri 2672 2627 2642
4986 4 tri 2521 2477 2527
4987 4 tri 2561 2609 2596
4988 4 tri 2684 2673 2705
4989 4 tri 2596 2627 2582
4990 4 tri 2729 2723 2759
4991 4 tri 2434 2433 2454
4992 4 tri 2448 2432 2469
4993 4 tri 2435 2434 2471
4994 4 tri 2433 2432 2448
4995 4 tri 2608 2563 2582
4996 4 tri 2662 2632 2647
4997 4 tri 2483 2441 2451
4998 4 tri 2532 2454 2497
4999 4 tri 2534 2504 2483
5000 4 tri 2486 2438 2437
5001 4 tri 2435 2471 2473
5002 4 tri 2440 2458 2451
5003 4 tri 2509 2473 2471
5004 4 tri 2539 2563 2588
5005 4 tri 2471 2454 2532
5006 4 tri 2630 2584 2588
5007 4 tri 2530 2516 2472
5008 4 tri 2656 2673 2637
5009 4 tri 2634 2630 2588
5010 4 tri 2737 2719 2711
5011 4 tri 2677 2651 2697
5012 4 tri 2838 2827 2849
5013 4 tri 2756 2770 2779
5014 4 tri 2953 2957 2927
5015 4 tri 2875 2884 2897
5016 4 tri 2869 2854 2878
5017 4 tri 2854 2846 2838
5018 4 tri 2869 2846 2854
5019 4 tri 2810 2801 2792
5020 4 tri 2684 2662 2647
5021 4 tri 2810 2823 2801
5022 4 tri 3160 3149 3174
5023 4 tri 3010 3049 3015
5024 4 tri 3168 3174 3149
5025 4 tri 3204 3216 3185
5026 4 tri 2961 2936 2957
5027 4 tri 3113 3097 3082
5028 4 tri 2924 2897 2913
5029 4 tri 2984 3015 3013
5030 4 tri 3121 3097 3113
5031 4 tri 3149 3135 3168
5032 4 tri 3087 3049 3075
5033 4 tri 3113 3107 3141
5034 4 tri 3498 3485 3462
5035 4 tri 3334 3303 3295
5036 4 tri 3429 3416 3446
5037 4 tri 3139 3103 3093
5038 4 tri 3126 3164 3141
5039 4 tri 3143 3153 3173
5040 4 tri 3188 3158 3148
5041 4 tri 3032 3018 3059
5042 4 tri 3049 3071 3043
5043 4 tri 3095 3083 3067
5044 4 tri 2943 2921 2904
5045 4 tri 3049 3043 3015
5046 4 tri 3069 3097 3078
5047 4 tri 3087 3071 3049
5048 4 tri 3082 3055 3071
5049 4 tri 2900 2939 2920
5050 4 tri 2983 2984 2957
5051 4 tri 2961 2957 2984
5052 4 tri 2983 3010 3015
5053 4 tri 2746 2770 2756
5054 4 tri 2723 2694 2680
5055 4 tri 2849 2854 2838
5056 4 tri 2780 2760 2762
5057 4 tri 2642 2688 2672
5058 4 tri 2683 2668 2715
5059 4 tri 2744 2718 2765
5060 4 tri 2672 2651 2627
5061 4 tri 2882 2862 2842
5062 4 tri 2784 2761 2744
5063 4 tri 3065 3040 3027
5064 4 tri 2900 2882 2925
5065 4 tri 2263 3123 2281
5066 4 tri 2996 3017 2989
5067 4 tri 2943 2958 2921
5068 4 tri 2974 2995 3009
5069 4 tri 3091 3067 3058
5070 4 tri 3067 3051 3031
5071 4 tri 2811 2844 2804
5072 4 tri 2954 2998 2968
5073 4 tri 2773 2811 2804
5074 4 tri 2971 2949 2930
5075 4 tri 2856 2891 2844
5076 4 tri 2891 2917 2874
5077 4 tri 2870 2895 2904
5078 4 tri 3011 2980 3006
5079 4 tri 3090 3079 3060
5080 4 tri 3009 3047 3024
5081 4 tri 3132 3144 3165
5082 4 tri 3146 3118 3154
5083 4 tri 3153 3143 3123
5084 4 tri 3182 3221 3205
5085 4 tri 3144 3169 3165
5086 4 tri 3123 3091 2281
5087 4 tri 2263 3153 3123
5088 4 tri 3230 3260 3258
5089 4 tri 3182 3142 3162
5090 4 tri 2245 2263 3132
5091 4 tri 3207 3195 3171
5092 4 tri 3144 3117 3136
5093 4 tri 3214 3207 3175
5094 4 tri 3154 3187 3175
5095 4 tri 3275 2174 3245
5096 4 tri 3214 3252 3235
5097 4 tri 3337 3369 3346
5098 4 tri 2230 3176 2245
5099 4 tri 3260 3282 3258
5100 4 tri 3161 3196 3186
5101 4 tri 2099 3369 2119
5102 4 tri 3303 3334 3345
5103 4 tri 3494 3464 3482
5104 4 tri 3534 3538 3580
5105 4 tri 3442 3443 3419
5106 4 tri 3397 3432 3425
5107 4 tri 3493 3503 3469
5108 4 tri 2099 2119 3355
5109 4 tri 3535 3570 3554
5110 4 tri 3465 3497 3468
5111 4 tri 2009 3494 3528
5112 4 tri 3712 3752 3725
5113 4 tri 3620 3641 3659
5114 4 tri 1974 1991 3551
5115 4 tri 3578 3603 3570
5116 4 tri 3589 3577 3554
5117 4 tri 3497 3537 3511
5118 4 tri 3897 3847 3821
5119 4 tri 3443 3469 3481
5120 4 tri 3465 3468 3438
5121 4 tri 3503 3513 3481
5122 4 tri 3537 3561 3511
5123 4 tri 3492 3538 3534
5124 4 tri 3560 3523 3562
5125 4 tri 3466 3511 3501
5126 4 tri 3692 3633 3645
5127 4 tri 3662 3644 3609
5128 4 tri 3587 3538 3549
5129 4 tri 3694 3662 3642
5130 4 tri 3523 3560 3531
5131 4 tri 3682 3624 3671
5132 4 tri 3830 3856 3803
5133 4 tri 3451 3479 3491
5134 4 tri 3450 3456 3492
5135 4 tri 3526 3542 3515
5136 4 tri 3526 3515 3485
5137 4 tri 3305 3270 3310
5138 4 tri 3319 3277 3323
5139 4 tri 3384 3395 3424
5140 4 tri 3430 3479 3451
5141 4 tri 3320 3341 3358
5142 4 tri 3277 3319 3273
5143 4 tri 3413 3425 3456
5144 4 tri 3356 3395 3353
5145 4 tri 3199 3221 3182
5146 4 tri 3258 3282 3290
5147 4 tri 3277 3229 3234
5148 4 tri 3139 3119 3161
5149 4 tri 3266 3254 3283
5150 4 tri 3200 3164 3194
5151 4 tri 3270 3273 3310
5152 4 tri 3234 3186 3196
5153 4 tri 3338 3311 3327
5154 4 tri 3266 3236 3254
5155 4 tri 3380 3351 3368
5156 4 tri 3330 3298 3283
5157 4 tri 3352 3378 3368
5158 4 tri 3505 3519 3490
5159 4 tri 3257 3241 3225
5160 4 tri 3174 3168 3203
5161 4 tri 3565 3583 3591
5162 4 tri 3648 3673 3669
5163 4 tri 3843 3852 3790
5164 4 tri 3575 3591 3607
5165 4 tri 3547 3519 3533
5166 4 tri 3565 3591 3575
5167 4 tri 3446 3416 3424
5168 4 tri 3597 3560 3599
5169 4 tri 3515 3542 3533
5170 4 tri 3644 3599 3609
5171 4 tri 3564 3583 3542
5172 4 tri 3625 3666 3656
5173 4 tri 3832 3885 3843
5174 4 tri 3724 3685 3729
5175 4 tri 3724 3674 3685
5176 4 tri 3722 3764 3754
5177 4 tri 3832 3791 3787
5178 4 tri 3905 3843 3885
5179 4 tri 3777 3800 3818
5180 4 tri 3908 3867 3851
5181 4 tri 3800 3851 3818
5182 4 tri 3705 3669 3673
5183 4 tri 3790 3852 3812
5184 4 tri 3870 3851 3812
5185 4 tri 3812 3800 3764
5186 4 tri 3744 3705 3715
5187 4 tri 3870 3908 3851
5188 4 tri 3963 3964 3870
5189 4 tri 3885 3894 3961
5190 4 tri 3847 3787 3821
5191 4 tri 3881 3957 3907
5192 4 tri 3682 3731 3694
5193 4 tri 3803 3813 3763
5194 4 tri 3892 3848 3888
5195 4 tri 3682 3718 3731
5196 4 tri 3949 3891 3948
5197 4 tri 3796 3731 3766
5198 4 tri 3766 3810 3828
5199 4 tri 3853 3799 3826
5200 4 tri 3952 3878 3951
5201 4 tri 3891 3846 3825
5202 4 tri 3888 3864 3954
5203 4 tri 3692 3718 3671
5204 4 tri 3826 3799 3769
5205 4 tri 3747 3733 3693
5206 4 tri 3909 3864 3853
5207 4 tri 3747 3693 3700
5208 4 tri 3725 3752 3770
5209 4 tri 3825 3784 3774
5210 4 tri 3798 3770 3752
5211 4 tri 3825 3841 3877
5212 4 tri 3913 3948 3877
5213 4 tri 3953 3909 3952
5214 4 tri 3890 3912 3932
5215 4 tri 3582 3618 3569
5216 4 tri 3887 3926 3927
5217 4 tri 3710 3665 3717
5218 4 tri 3882 3831 3835
5219 4 tri 3829 3838 3793
5220 4 tri 3873 3838 3829
5221 4 tri 3943 3944 1808
5222 4 tri 3767 3734 3737
5223 4 tri 3874 3869 3822
5224 4 tri 3937 3874 3889
5225 4 tri 3824 3786 3779
5226 4 tri 3874 3937 3938
5227 4 tri 3935 3876 3934
5228 4 tri 1861 3798 3752
5229 4 tri 3914 3861 3862
5230 4 tri 3946 3947 3913
5231 4 tri 3861 3809 3819
5232 4 tri 3721 3698 3725
5233 4 tri 3664 1902 1921
5234 4 tri 3652 3679 3661
5235 4 tri 3590 3573 3552
5236 4 tri 3711 3746 3748
5237 4 tri 3836 3883 3886
5238 4 tri 3521 3552 3512
5239 4 tri 3455 3409 3411
5240 4 tri 3470 3435 3439
5241 4 tri 3383 3408 2080
5242 4 tri 3507 3512 3539
5243 4 tri 3521 3483 3540
5244 4 tri 3594 3579 3567
5245 4 tri 3627 3661 3641
5246 4 tri 3291 3329 3301
5247 4 tri 2137 2119 3337
5248 4 tri 3408 3437 2065
5249 4 tri 3464 2025 2044
5250 4 tri 3317 3286 3301
5251 4 tri 3195 3169 3171
5252 4 tri 3269 3301 3286
5253 4 tri 3339 3333 3317
5254 4 tri 3448 3467 3427
5255 4 tri 3253 3197 3189
5256 4 tri 3448 3486 3467
5257 4 tri 3536 3539 3567
5258 4 tri 3536 3567 3551
5259 4 tri 3447 3437 3421
5260 4 tri 3536 3551 3514
5261 4 tri 3464 3447 3482
5262 4 tri 3639 3611 3588
5263 4 tri 3508 3504 3550
5264 4 tri 3255 3237 3193
5265 4 tri 3098 3037 3066
5266 4 tri 3251 3292 3271
5267 4 tri 3193 3131 3151
5268 4 tri 3211 3206 3157
5269 4 tri 3127 3066 3084
5270 4 tri 3253 3255 3197
5271 4 tri 3189 3127 3138
5272 4 tri 3357 3302 3321
5273 4 tri 3261 3239 3217
5274 4 tri 3474 3520 3529
5275 4 tri 3473 3431 3449
5276 4 tri 3524 3553 3582
5277 4 tri 3454 3473 3495
5278 4 tri 3584 3559 3529
5279 4 tri 3520 3524 3569
5280 4 tri 3550 3559 3600
5281 4 tri 3550 3504 3559
5282 4 tri 3701 3736 3749
5283 4 tri 3600 3559 3616
5284 4 tri 3650 3660 3696
5285 4 tri 3689 3737 3706
5286 4 tri 3758 3802 3755
5287 4 tri 3746 3711 3677
5288 4 tri 3629 3619 3663
5289 4 tri 3604 3553 3581
5290 4 tri 3833 3805 3768
5291 4 tri 3618 3619 3569
5292 4 tri 3717 3768 3758
5293 4 tri 3727 3703 3683
5294 4 tri 3581 3527 3557
5295 4 tri 3509 3476 3452
5296 4 tri 3623 3613 3643
5297 4 tri 3653 3680 3647
5298 4 tri 3499 3489 3518
5299 4 tri 3363 3349 3390
5300 4 tri 3566 3593 3576
5301 4 tri 3614 3657 3630
5302 4 tri 3524 3477 3500
5303 4 tri 3354 3321 3300
5304 4 tri 3557 3527 3509
5305 4 tri 3452 3418 3394
5306 4 tri 3332 3377 3342
5307 4 tri 3321 3272 3300
5308 4 tri 3426 3394 3377
5309 4 tri 3394 3418 3354
5310 4 tri 3276 3278 3242
5311 4 tri 3210 3217 3178
5312 4 tri 3247 3300 3272
5313 4 tri 3302 3364 3304
5314 4 tri 3183 3212 3172
5315 4 tri 3246 3249 3210
5316 4 tri 3276 3242 3244
5317 4 tri 3246 3212 3242
5318 4 tri 3325 3335 3306
5319 4 tri 3363 3390 3407
5320 4 tri 3340 3349 3314
5321 4 tri 3375 3412 3390
5322 4 tri 3415 3420 3388
5323 4 tri 3267 3279 3248
5324 4 tri 3387 3388 3359
5325 4 tri 3403 3415 3387
5326 4 tri 3499 3525 3532
5327 4 tri 3585 3593 3566
5328 4 tri 3454 3495 3478
5329 4 tri 3668 3672 3643
5330 4 tri 3686 3680 3653
5331 4 tri 3902 3921 3922
5332 4 tri 3860 3902 3910
5333 4 tri 3871 3855 3827
5334 4 tri 3757 3726 3703
5335 4 tri 3794 3762 3811
5336 4 tri 3683 3640 3647
5337 4 tri 3806 3757 3778
5338 4 tri 3820 3903 3868
5339 4 tri 3820 3807 3859
5340 4 tri 3820 3823 3773
5341 4 tri 3762 3785 3811
5342 4 tri 3898 3859 3849
5343 4 tri 3924 3903 3898
5344 4 tri 3903 3925 3868
5345 4 tri 2599 2574 2610
5346 4 tri 2444 2488 2397
5347 4 tri 2468 2453 2399
5348 4 tri 2488 2524 2468
5349 4 tri 2544 2551 2593
5350 4 tri 2488 2444 2498
5351 4 tri 2544 2488 2498
5352 4 tri 2468 2398 2488
5353 4 tri 2445 2395 2394
5354 4 tri 2546 2499 2512
5355 4 tri 2475 2395 2445
5356 4 tri 2475 2396 2395
5357 4 tri 2475 2444 2396
5358 4 tri 2493 2457 2393
5359 4 tri 2457 2445 2394
5360 4 tri 2499 2475 2445
5361 4 tri 2393 2457 2394
5362 4 tri 2493 2512 2457
5363 4 tri 2546 2512 2558
5364 4 tri 2499 2457 2512
5365 4 tri 2636 2610 2645
5366 4 tri 2599 2558 2574
5367 4 tri 2671 2636 2645
5368 4 tri 2724 2702 2698
5369 4 tri 2599 2624 2589
5370 4 tri 2624 2658 2619
5371 4 tri 2636 2652 2624
5372 4 tri 2671 2686 2652
5373 4 tri 2546 2558 2589
5374 4 tri 2512 2536 2558
5375 4 tri 2636 2599 2610
5376 4 tri 2589 2558 2599
5377 4 tri 2586 2546 2589
5378 4 tri 2586 2529 2546
5379 4 tri 2475 2529 2498
5380 4 tri 2499 2546 2529
5381 4 tri 2488 2544 2524
5382 4 tri 2498 2551 2544
5383 4 tri 2586 2593 2551
5384 4 tri 2586 2619 2593
5385 4 tri 2593 2639 2628
5386 4 tri 2658 2686 2698
5387 4 tri 2529 2586 2551
5388 4 tri 2589 2624 2619
5389 4 tri 2589 2619 2586
5390 4 tri 2624 2652 2658
5391 4 tri 2679 2698 2702
5392 4 tri 2615 2649 2605
5393 4 tri 2695 2659 2666
5394 4 tri 2734 2768 2769
5395 4 tri 2702 2728 2695
5396 4 tri 2754 2768 2727
5397 4 tri 2687 2691 2734
5398 4 tri 2695 2728 2727
5399 4 tri 2666 2702 2695
5400 4 tri 2751 2754 2728
5401 4 tri 2639 2658 2679
5402 4 tri 2698 2739 2724
5403 4 tri 2751 2775 2754
5404 4 tri 2751 2764 2783
5405 4 tri 2679 2658 2698
5406 4 tri 2686 2700 2716
5407 4 tri 2751 2724 2739
5408 4 tri 2751 2728 2724
5409 4 tri 2619 2658 2639
5410 4 tri 2652 2686 2658
5411 4 tri 2666 2679 2702
5412 4 tri 2666 2639 2679
5413 4 tri 2675 2700 2671
5414 4 tri 2748 2767 2774
5415 4 tri 2706 2732 2700
5416 4 tri 2739 2698 2716
5417 4 tri 2700 2732 2716
5418 4 tri 2730 2755 2732
5419 4 tri 2716 2748 2739
5420 4 tri 2732 2767 2748
5421 4 tri 2778 2767 2755
5422 4 tri 2700 2675 2706
5423 4 tri 2558 2536 2574
5424 4 tri 2512 2493 2536
5425 4 tri 2834 2813 2822
5426 4 tri 2834 2845 2853
5427 4 tri 2911 2898 2889
5428 4 tri 2898 2923 2905
5429 4 tri 2898 2905 2888
5430 4 tri 2955 2942 2932
5431 4 tri 2942 2955 2965
5432 4 tri 3038 3008 3025
5433 4 tri 3088 3063 3077
5434 4 tri 2965 2975 2985
5435 4 tri 3005 2990 3019
5436 4 tri 2985 3002 3008
5437 4 tri 3019 2990 3008
5438 4 tri 2972 2966 2990
5439 4 tri 3035 3019 3044
5440 4 tri 3005 2972 2990
5441 4 tri 3062 3044 3063
5442 4 tri 3019 3008 3038
5443 4 tri 3062 3085 3086
5444 4 tri 3063 3052 3077
5445 4 tri 3063 3038 3052
5446 4 tri 3044 3019 3038
5447 4 tri 3062 3063 3085
5448 4 tri 3044 3038 3063
5449 4 tri 3085 3088 3112
5450 4 tri 3085 3063 3088
5451 4 tri 3104 3129 3133
5452 4 tri 3227 3201 3220
5453 4 tri 3104 3133 3112
5454 4 tri 3129 3159 3133
5455 4 tri 3213 3212 3183
5456 4 tri 3120 3114 3147
5457 4 tri 3248 3240 3267
5458 4 tri 3147 3114 3137
5459 4 tri 3085 3112 3114
5460 4 tri 3112 3137 3114
5461 4 tri 3133 3163 3137
5462 4 tri 3128 3096 3120
5463 4 tri 3057 3035 3062
5464 4 tri 3128 3120 3156
5465 4 tri 3086 3114 3120
5466 4 tri 3120 3147 3156
5467 4 tri 3137 3170 3147
5468 4 tri 3183 3172 3156
5469 4 tri 3068 3036 3034
5470 4 tri 3156 3172 3128
5471 4 tri 3210 3249 3217
5472 4 tri 3086 3096 3057
5473 4 tri 3128 3100 3096
5474 4 tri 3140 3111 3100
5475 4 tri 3070 3036 3068
5476 4 tri 3020 3035 3057
5477 4 tri 3020 3005 3035
5478 4 tri 3057 3068 3034
5479 4 tri 3096 3100 3068
5480 4 tri 3035 3005 3019
5481 4 tri 3020 2986 3005
5482 4 tri 3057 3062 3086
5483 4 tri 3035 3044 3062
5484 4 tri 2986 2959 2972
5485 4 tri 2928 2942 2947
5486 4 tri 2970 2959 2986
5487 4 tri 2839 2803 2835
5488 4 tri 3020 3001 2986
5489 4 tri 2915 2902 2871
5490 4 tri 3004 3001 3036
5491 4 tri 2970 2986 3001
5492 4 tri 2970 2940 2937
5493 4 tri 2970 2969 2940
5494 4 tri 2858 2885 2883
5495 4 tri 2929 2940 2969
5496 4 tri 2885 2909 2883
5497 4 tri 2929 2969 2951
5498 4 tri 2928 2931 2907
5499 4 tri 2836 2808 2812
5500 4 tri 2883 2909 2914
5501 4 tri 2907 2905 2928
5502 4 tri 2937 2931 2959
5503 4 tri 2909 2885 2907
5504 4 tri 2914 2937 2940
5505 4 tri 2909 2931 2937
5506 4 tri 2909 2907 2931
5507 4 tri 2885 2861 2886
5508 4 tri 2931 2928 2947
5509 4 tri 2905 2923 2928
5510 4 tri 2907 2886 2905
5511 4 tri 2876 2868 2889
5512 4 tri 2876 2898 2888
5513 4 tri 2911 2923 2898
5514 4 tri 2886 2861 2864
5515 4 tri 2888 2886 2864
5516 4 tri 2864 2876 2888
5517 4 tri 2864 2847 2853
5518 4 tri 2840 2861 2836
5519 4 tri 2840 2864 2861
5520 4 tri 2905 2886 2888
5521 4 tri 2907 2885 2886
5522 4 tri 2812 2819 2840
5523 4 tri 2847 2864 2840
5524 4 tri 2845 2834 2822
5525 4 tri 2847 2840 2819
5526 4 tri 2868 2853 2845
5527 4 tri 2876 2864 2853
5528 4 tri 2767 2788 2774
5529 4 tri 2778 2800 2788
5530 4 tri 2788 2800 2813
5531 4 tri 2774 2802 2793
5532 4 tri 2788 2813 2802
5533 4 tri 2836 2812 2840
5534 4 tri 2802 2813 2819
5535 4 tri 2751 2783 2775
5536 4 tri 2764 2793 2783
5537 4 tri 2783 2812 2808
5538 4 tri 2793 2819 2812
5539 4 tri 2885 2858 2861
5540 4 tri 2858 2831 2836
5541 4 tri 2852 2858 2883
5542 4 tri 2836 2861 2858
5543 4 tri 2836 2831 2808
5544 4 tri 2789 2815 2803
5545 4 tri 2858 2852 2831
5546 4 tri 2867 2879 2839
5547 4 tri 2831 2815 2808
5548 4 tri 2831 2852 2815
5549 4 tri 2835 2803 2815
5550 4 tri 2789 2808 2815
5551 4 tri 2568 2615 2605
5552 4 tri 2615 2628 2659
5553 4 tri 2553 2568 2605
5554 4 tri 2580 2628 2615
5555 4 tri 2649 2687 2644
5556 4 tri 2649 2659 2691
5557 4 tri 2594 2600 2638
5558 4 tri 2603 2557 2598
5559 4 tri 2644 2685 2643
5560 4 tri 2687 2722 2685
5561 4 tri 2638 2600 2643
5562 4 tri 2518 2506 2467
5563 4 tri 2600 2603 2643
5564 4 tri 2600 2559 2562
5565 4 tri 2540 2489 2500
5566 4 tri 2464 2407 2489
5567 4 tri 2629 2660 2614
5568 4 tri 2635 2591 2602
5569 4 tri 2670 2660 2629
5570 4 tri 2602 2565 2614
5571 4 tri 2635 2648 2682
5572 4 tri 2602 2614 2648
5573 4 tri 2648 2660 2693
5574 4 tri 2648 2614 2660
5575 4 tri 2685 2678 2643
5576 4 tri 2670 2629 2638
5577 4 tri 2638 2678 2670
5578 4 tri 2685 2722 2717
5579 4 tri 2717 2714 2678
5580 4 tri 2747 2742 2708
5581 4 tri 2714 2747 2708
5582 4 tri 2747 2781 2742
5583 4 tri 2752 2747 2714
5584 4 tri 2787 2781 2747
5585 4 tri 2742 2781 2771
5586 4 tri 2828 2865 2872
5587 4 tri 2814 2821 2860
5588 4 tri 2781 2787 2821
5589 4 tri 2717 2752 2714
5590 4 tri 2763 2795 2752
5591 4 tri 2787 2828 2821
5592 4 tri 2787 2795 2828
5593 4 tri 2839 2805 2803
5594 4 tri 2795 2763 2805
5595 4 tri 2865 2833 2871
5596 4 tri 2795 2805 2833
5597 4 tri 2685 2717 2678
5598 4 tri 2722 2763 2717
5599 4 tri 2803 2769 2768
5600 4 tri 2805 2763 2769
5601 4 tri 2734 2691 2727
5602 4 tri 2687 2649 2691
5603 4 tri 2768 2734 2727
5604 4 tri 2769 2722 2734
5605 4 tri 2789 2803 2768
5606 4 tri 2815 2852 2835
5607 4 tri 2883 2867 2852
5608 4 tri 2839 2833 2805
5609 4 tri 2852 2867 2835
5610 4 tri 2883 2914 2899
5611 4 tri 2867 2839 2835
5612 4 tri 2871 2833 2839
5613 4 tri 2871 2879 2915
5614 4 tri 2871 2839 2879
5615 4 tri 2899 2915 2879
5616 4 tri 2951 2978 2944
5617 4 tri 2899 2929 2915
5618 4 tri 2969 3004 2991
5619 4 tri 2867 2899 2879
5620 4 tri 2914 2940 2929
5621 4 tri 2915 2929 2951
5622 4 tri 2899 2914 2929
5623 4 tri 2951 2969 2991
5624 4 tri 2969 3001 3004
5625 4 tri 3111 3070 3100
5626 4 tri 3022 3064 3048
5627 4 tri 3128 3140 3100
5628 4 tri 3178 3217 3191
5629 4 tri 3172 3140 3128
5630 4 tri 3172 3212 3210
5631 4 tri 3111 3073 3070
5632 4 tri 3110 3064 3073
5633 4 tri 3111 3150 3110
5634 4 tri 3111 3140 3150
5635 4 tri 3022 2991 3033
5636 4 tri 2978 2951 2991
5637 4 tri 3064 3033 3073
5638 4 tri 2991 3004 3033
5639 4 tri 3099 3048 3102
5640 4 tri 3099 3046 3048
5641 4 tri 3110 3152 3102
5642 4 tri 3110 3150 3152
5643 4 tri 3102 3155 3099
5644 4 tri 3102 3152 3155
5645 4 tri 3250 3189 3206
5646 4 tri 3084 3046 3099
5647 4 tri 3198 3211 3155
5648 4 tri 3206 3138 3157
5649 4 tri 3138 3084 3099
5650 4 tri 3084 3023 3046
5651 4 tri 3127 3084 3138
5652 4 tri 3066 3023 3084
5653 4 tri 2860 2916 2908
5654 4 tri 2979 3000 3037
5655 4 tri 2994 3023 2960
5656 4 tri 2994 3046 3023
5657 4 tri 2960 2952 2994
5658 4 tri 2944 2902 2915
5659 4 tri 2991 3022 2978
5660 4 tri 3033 3064 3022
5661 4 tri 2916 2906 2952
5662 4 tri 2872 2865 2906
5663 4 tri 2997 2944 2978
5664 4 tri 2906 2902 2944
5665 4 tri 2814 2860 2857
5666 4 tri 2821 2872 2860
5667 4 tri 2908 2916 2960
5668 4 tri 2860 2872 2916
5669 4 tri 2824 2814 2857
5670 4 tri 2771 2781 2814
5671 4 tri 2850 2824 2857
5672 4 tri 2799 2757 2786
5673 4 tri 2850 2830 2799
5674 4 tri 2850 2881 2830
5675 4 tri 2850 2893 2881
5676 4 tri 2857 2860 2908
5677 4 tri 2908 2945 2893
5678 4 tri 2903 2941 2948
5679 4 tri 2945 2908 2960
5680 4 tri 2893 2857 2908
5681 4 tri 3000 2945 2960
5682 4 tri 2926 2893 2945
5683 4 tri 3066 3000 3023
5684 4 tri 2922 2962 2981
5685 4 tri 3066 3037 3000
5686 4 tri 3066 3127 3098
5687 4 tri 3206 3189 3138
5688 4 tri 3151 3131 3098
5689 4 tri 3197 3151 3127
5690 4 tri 3072 3012 3037
5691 4 tri 3127 3151 3098
5692 4 tri 3197 3255 3193
5693 4 tri 3012 2979 3037
5694 4 tri 2926 2945 2979
5695 4 tri 3131 3072 3098
5696 4 tri 3131 3145 3092
5697 4 tri 2962 3012 2981
5698 4 tri 3012 3072 3039
5699 4 tri 3092 3039 3072
5700 4 tri 3089 3124 3094
5701 4 tri 3131 3092 3072
5702 4 tri 3145 3134 3106
5703 4 tri 3089 3030 3061
5704 4 tri 3030 2982 3016
5705 4 tri 3124 3089 3134
5706 4 tri 3061 3092 3106
5707 4 tri 2948 2982 2992
5708 4 tri 2941 2903 2901
5709 4 tri 2981 3016 2982
5710 4 tri 3039 3061 3016
5711 4 tri 2859 2901 2903
5712 4 tri 2881 2926 2922
5713 4 tri 2948 2941 2982
5714 4 tri 2962 2926 2979
5715 4 tri 2901 2922 2941
5716 4 tri 2901 2866 2922
5717 4 tri 2926 2962 2922
5718 4 tri 2979 3012 2962
5719 4 tri 2772 2796 2758
5720 4 tri 2772 2830 2796
5721 4 tri 2922 2866 2881
5722 4 tri 2901 2859 2866
5723 4 tri 2782 2817 2776
5724 4 tri 2826 2866 2859
5725 4 tri 2856 2859 2903
5726 4 tri 2817 2826 2859
5727 4 tri 2741 2782 2743
5728 4 tri 2796 2826 2782
5729 4 tri 2667 2712 2669
5730 4 tri 2782 2776 2743
5731 4 tri 2699 2743 2740
5732 4 tri 2703 2741 2743
5733 4 tri 2669 2712 2703
5734 4 tri 2741 2758 2782
5735 4 tri 2667 2692 2712
5736 4 tri 2681 2709 2725
5737 4 tri 2712 2741 2703
5738 4 tri 2712 2735 2758
5739 4 tri 2782 2758 2796
5740 4 tri 2741 2712 2758
5741 4 tri 2709 2745 2757
5742 4 tri 2745 2786 2757
5743 4 tri 2725 2772 2735
5744 4 tri 2799 2830 2772
5745 4 tri 2693 2742 2726
5746 4 tri 2786 2824 2799
5747 4 tri 2771 2786 2745
5748 4 tri 2771 2814 2786
5749 4 tri 2664 2635 2682
5750 4 tri 2682 2693 2726
5751 4 tri 2771 2726 2742
5752 4 tri 2771 2745 2726
5753 4 tri 2650 2631 2681
5754 4 tri 2704 2745 2709
5755 4 tri 2692 2725 2735
5756 4 tri 2709 2757 2725
5757 4 tri 2577 2601 2621
5758 4 tri 2601 2579 2631
5759 4 tri 2681 2653 2709
5760 4 tri 2653 2617 2664
5761 4 tri 2709 2664 2704
5762 4 tri 2653 2604 2617
5763 4 tri 2617 2591 2635
5764 4 tri 2569 2604 2556
5765 4 tri 2664 2617 2635
5766 4 tri 2515 2569 2511
5767 4 tri 2621 2601 2650
5768 4 tri 2519 2466 2470
5769 4 tri 2601 2631 2650
5770 4 tri 2604 2653 2631
5771 4 tri 2667 2621 2650
5772 4 tri 2633 2590 2621
5773 4 tri 2621 2667 2633
5774 4 tri 2650 2692 2667
5775 4 tri 2663 2626 2669
5776 4 tri 2633 2667 2669
5777 4 tri 2712 2692 2735
5778 4 tri 2650 2681 2692
5779 4 tri 2633 2626 2590
5780 4 tri 2633 2669 2626
5781 4 tri 2699 2663 2703
5782 4 tri 2623 2587 2626
5783 4 tri 2538 2587 2570
5784 4 tri 2564 2626 2587
5785 4 tri 2657 2623 2663
5786 4 tri 2606 2555 2570
5787 4 tri 2479 2485 2538
5788 4 tri 2543 2590 2564
5789 4 tri 2577 2552 2601
5790 4 tri 2577 2543 2517
5791 4 tri 2485 2505 2538
5792 4 tri 2590 2626 2564
5793 4 tri 2456 2495 2416
5794 4 tri 2505 2564 2538
5795 4 tri 2482 2517 2456
5796 4 tri 2552 2577 2517
5797 4 tri 2419 2485 2479
5798 4 tri 2452 2495 2505
5799 4 tri 2452 2505 2485
5800 4 tri 2543 2564 2505
5801 4 tri 2503 2455 2522
5802 4 tri 2417 2452 2418
5803 4 tri 2456 2416 2415
5804 4 tri 2418 2452 2485
5805 4 tri 2417 2495 2452
5806 4 tri 2482 2456 2415
5807 4 tri 2517 2495 2456
5808 4 tri 2414 2482 2415
5809 4 tri 2466 2519 2523
5810 4 tri 2413 2470 2466
5811 4 tri 2511 2519 2470
5812 4 tri 2482 2414 2466
5813 4 tri 2474 2411 2410
5814 4 tri 2459 2412 2411
5815 4 tri 2414 2413 2466
5816 4 tri 2528 2560 2515
5817 4 tri 2515 2511 2459
5818 4 tri 2459 2511 2470
5819 4 tri 2459 2474 2515
5820 4 tri 2480 2528 2474
5821 4 tri 2569 2617 2604
5822 4 tri 2556 2519 2511
5823 4 tri 2523 2482 2466
5824 4 tri 2556 2579 2519
5825 4 tri 2552 2517 2523
5826 4 tri 2515 2560 2569
5827 4 tri 2604 2631 2579
5828 4 tri 2552 2579 2601
5829 4 tri 2552 2523 2579
5830 4 tri 2474 2528 2515
5831 4 tri 2591 2617 2560
5832 4 tri 2511 2569 2556
5833 4 tri 2560 2617 2569
5834 4 tri 2507 2528 2480
5835 4 tri 2554 2560 2528
5836 4 tri 2548 2594 2585
5837 4 tri 2507 2514 2565
5838 4 tri 2464 2489 2514
5839 4 tri 2506 2559 2548
5840 4 tri 2462 2506 2500
5841 4 tri 2510 2465 2508
5842 4 tri 2548 2540 2500
5843 4 tri 2585 2565 2540
5844 4 tri 2540 2548 2585
5845 4 tri 2500 2506 2548
5846 4 tri 2594 2559 2600
5847 4 tri 2594 2548 2559
5848 4 tri 2600 2562 2603
5849 4 tri 2559 2506 2518
5850 4 tri 2580 2568 2524
5851 4 tri 2553 2508 2502
5852 4 tri 2520 2568 2553
5853 4 tri 2520 2524 2568
5854 4 tri 2557 2510 2508
5855 4 tri 2402 2401 2465
5856 4 tri 2553 2502 2520
5857 4 tri 2508 2465 2450
5858 4 tri 2518 2510 2562
5859 4 tri 2467 2403 2463
5860 4 tri 2463 2518 2467
5861 4 tri 2562 2559 2518
5862 4 tri 2489 2406 2446
5863 4 tri 2502 2450 2453
5864 4 tri 2502 2508 2450
5865 4 tri 2510 2463 2465
5866 4 tri 2510 2518 2463
5867 4 tri 2468 2399 2398
5868 4 tri 2453 2400 2399
5869 4 tri 2450 2400 2453
5870 4 tri 2450 2401 2400
5871 4 tri 2467 2462 2404
5872 4 tri 2446 2406 2405
5873 4 tri 2489 2407 2406
5874 4 tri 2500 2446 2462
5875 4 tri 2462 2446 2405
5876 4 tri 2500 2489 2446
5877 4 tri 2408 2407 2464
5878 4 tri 2480 2460 2507
5879 4 tri 2460 2408 2464
5880 4 tri 2476 2425 2424
5881 4 tri 2427 2449 2492
5882 4 tri 2427 2426 2449
5883 4 tri 2422 2491 2423
5884 4 tri 2419 2479 2420
5885 4 tri 2455 2420 2479
5886 4 tri 2455 2421 2420
5887 4 tri 2422 2421 2461
5888 4 tri 2522 2455 2479
5889 4 tri 2503 2461 2455
5890 4 tri 2503 2526 2461
5891 4 tri 2545 2525 2487
5892 4 tri 2571 2525 2545
5893 4 tri 2496 2542 2531
5894 4 tri 2526 2545 2491
5895 4 tri 2640 2622 2661
5896 4 tri 2578 2592 2545
5897 4 tri 2620 2583 2571
5898 4 tri 2461 2526 2491
5899 4 tri 2503 2555 2526
5900 4 tri 2538 2570 2522
5901 4 tri 2587 2623 2570
5902 4 tri 2657 2606 2623
5903 4 tri 2657 2622 2606
5904 4 tri 2696 2661 2657
5905 4 tri 2620 2571 2592
5906 4 tri 2640 2661 2689
5907 4 tri 2622 2657 2661
5908 4 tri 2743 2699 2703
5909 4 tri 2696 2657 2699
5910 4 tri 2696 2689 2661
5911 4 tri 2665 2668 2625
5912 4 tri 2740 2773 2733
5913 4 tri 2696 2740 2733
5914 4 tri 2545 2592 2571
5915 4 tri 2578 2622 2592
5916 4 tri 2592 2640 2620
5917 4 tri 2592 2622 2640
5918 4 tri 2640 2674 2620
5919 4 tri 2701 2721 2749
5920 4 tri 2620 2674 2654
5921 4 tri 2689 2733 2721
5922 4 tri 2674 2721 2701
5923 4 tri 2674 2689 2721
5924 4 tri 2674 2701 2654
5925 4 tri 2721 2766 2749
5926 4 tri 2843 2892 2863
5927 4 tri 2715 2668 2713
5928 4 tri 2572 2527 2533
5929 4 tri 2618 2583 2620
5930 4 tri 2701 2665 2654
5931 4 tri 2701 2713 2665
5932 4 tri 2533 2478 2492
5933 4 tri 2542 2535 2583
5934 4 tri 2665 2618 2654
5935 4 tri 2581 2583 2618
5936 4 tri 2571 2535 2525
5937 4 tri 2583 2581 2542
5938 4 tri 2531 2542 2581
5939 4 tri 2496 2426 2484
5940 4 tri 2525 2476 2487
5941 4 tri 2525 2535 2476
5942 4 tri 2542 2484 2535
5943 4 tri 2426 2425 2484
5944 4 tri 2426 2496 2449
5945 4 tri 2484 2542 2496
5946 4 tri 2496 2531 2449
5947 4 tri 2573 2625 2616
5948 4 tri 2531 2492 2449
5949 4 tri 2616 2625 2668
5950 4 tri 2430 2429 2481
5951 4 tri 2492 2531 2533
5952 4 tri 2533 2481 2478
5953 4 tri 2477 2431 2430
5954 4 tri 2481 2527 2477
5955 4 tri 2572 2616 2607
5956 4 tri 2607 2566 2572
5957 4 tri 2561 2596 2547
5958 4 tri 2481 2533 2527
5959 4 tri 2531 2581 2573
5960 4 tri 2527 2572 2566
5961 4 tri 2573 2581 2625
5962 4 tri 2533 2573 2572
5963 4 tri 2533 2531 2573
5964 4 tri 2683 2641 2668
5965 4 tri 2572 2573 2616
5966 4 tri 2753 2797 2750
5967 4 tri 2710 2750 2738
5968 4 tri 2710 2683 2715
5969 4 tri 2609 2566 2607
5970 4 tri 2806 2825 2784
5971 4 tri 2688 2642 2655
5972 4 tri 2641 2607 2616
5973 4 tri 2641 2683 2655
5974 4 tri 2668 2641 2616
5975 4 tri 2655 2642 2609
5976 4 tri 2641 2655 2607
5977 4 tri 2642 2596 2609
5978 4 tri 2607 2655 2609
5979 4 tri 2683 2710 2655
5980 4 tri 2738 2688 2710
5981 4 tri 2718 2697 2672
5982 4 tri 2718 2672 2688
5983 4 tri 2697 2651 2672
5984 4 tri 2744 2720 2697
5985 4 tri 2680 2656 2630
5986 4 tri 2513 2561 2547
5987 4 tri 2642 2627 2596
5988 4 tri 2677 2634 2651
5989 4 tri 2588 2563 2608
5990 4 tri 2596 2582 2547
5991 4 tri 2563 2539 2509
5992 4 tri 2541 2486 2490
5993 4 tri 2486 2437 2490
5994 4 tri 2521 2561 2513
5995 4 tri 2566 2609 2561
5996 4 tri 2608 2582 2627
5997 4 tri 2563 2532 2582
5998 4 tri 2433 2448 2454
5999 4 tri 2513 2547 2497
6000 4 tri 2561 2521 2566
6001 4 tri 2513 2469 2521
6002 4 tri 2509 2471 2532
6003 4 tri 2473 2436 2435
6004 4 tri 2563 2509 2532
6005 4 tri 2539 2473 2509
6006 4 tri 2490 2437 2436
6007 4 tri 2471 2434 2454
6008 4 tri 2497 2448 2513
6009 4 tri 2497 2454 2448
6010 4 tri 2448 2469 2513
6011 4 tri 2431 2477 2469
6012 4 tri 2427 2492 2428
6013 4 tri 2428 2478 2429
6014 4 tri 2473 2490 2436
6015 4 tri 2539 2490 2473
6016 4 tri 2486 2530 2472
6017 4 tri 2486 2472 2438
6018 4 tri 2550 2534 2576
6019 4 tri 2539 2541 2490
6020 4 tri 2541 2588 2584
6021 4 tri 2472 2439 2438
6022 4 tri 2472 2516 2458
6023 4 tri 2501 2516 2549
6024 4 tri 2439 2458 2440
6025 4 tri 2439 2472 2458
6026 4 tri 2440 2451 2441
6027 4 tri 2458 2516 2501
6028 4 tri 2442 2483 2447
6029 4 tri 2451 2501 2483
6030 4 tri 2483 2442 2441
6031 4 tri 2447 2494 2443
6032 4 tri 2447 2443 2442
6033 4 tri 2537 2494 2504
6034 4 tri 2632 2611 2595
6035 4 tri 2632 2646 2611
6036 4 tri 2719 2731 2707
6037 4 tri 2719 2737 2746
6038 4 tri 2676 2662 2690
6039 4 tri 2711 2736 2737
6040 4 tri 2736 2711 2705
6041 4 tri 2690 2707 2676
6042 4 tri 2694 2729 2705
6043 4 tri 2595 2613 2632
6044 4 tri 2613 2597 2637
6045 4 tri 2690 2662 2684
6046 4 tri 2647 2673 2684
6047 4 tri 2711 2690 2684
6048 4 tri 2676 2646 2662
6049 4 tri 2719 2690 2711
6050 4 tri 2719 2707 2690
6051 4 tri 2611 2575 2595
6052 4 tri 2534 2483 2501
6053 4 tri 2595 2575 2550
6054 4 tri 2575 2537 2550
6055 4 tri 2447 2483 2504
6056 4 tri 2550 2537 2504
6057 4 tri 2576 2534 2549
6058 4 tri 2451 2458 2501
6059 4 tri 2549 2534 2501
6060 4 tri 2550 2504 2534
6061 4 tri 2597 2613 2576
6062 4 tri 2595 2550 2576
6063 4 tri 2576 2613 2595
6064 4 tri 2576 2549 2597
6065 4 tri 2647 2613 2637
6066 4 tri 2549 2516 2567
6067 4 tri 2584 2567 2530
6068 4 tri 2612 2597 2567
6069 4 tri 2567 2597 2549
6070 4 tri 2637 2673 2647
6071 4 tri 2584 2530 2541
6072 4 tri 2567 2516 2530
6073 4 tri 2486 2541 2530
6074 4 tri 2539 2588 2541
6075 4 tri 2608 2634 2588
6076 4 tri 2612 2567 2584
6077 4 tri 2680 2630 2634
6078 4 tri 2612 2584 2630
6079 4 tri 2651 2634 2608
6080 4 tri 2677 2680 2634
6081 4 tri 2720 2680 2677
6082 4 tri 2694 2673 2656
6083 4 tri 2612 2637 2597
6084 4 tri 2612 2656 2637
6085 4 tri 2630 2656 2612
6086 4 tri 2680 2694 2656
6087 4 tri 2736 2705 2729
6088 4 tri 2705 2673 2694
6089 4 tri 2736 2729 2762
6090 4 tri 2723 2680 2720
6091 4 tri 2697 2720 2677
6092 4 tri 2759 2785 2762
6093 4 tri 2761 2759 2723
6094 4 tri 2729 2694 2723
6095 4 tri 2809 2807 2780
6096 4 tri 2762 2729 2759
6097 4 tri 2762 2760 2736
6098 4 tri 2762 2785 2780
6099 4 tri 2816 2829 2809
6100 4 tri 2792 2801 2779
6101 4 tri 2785 2809 2780
6102 4 tri 2827 2838 2810
6103 4 tri 2841 2829 2816
6104 4 tri 2855 2849 2829
6105 4 tri 2816 2809 2785
6106 4 tri 2829 2807 2809
6107 4 tri 2880 2848 2851
6108 4 tri 2894 2875 2897
6109 4 tri 2820 2798 2825
6110 4 tri 2927 2957 2936
6111 4 tri 2924 2913 2936
6112 4 tri 2896 2880 2918
6113 4 tri 2884 2896 2913
6114 4 tri 2918 2953 2927
6115 4 tri 2878 2875 2894
6116 4 tri 2875 2854 2849
6117 4 tri 2938 2919 2924
6118 4 tri 2913 2927 2936
6119 4 tri 2841 2855 2829
6120 4 tri 2884 2913 2897
6121 4 tri 2873 2884 2855
6122 4 tri 2873 2896 2884
6123 4 tri 2829 2849 2827
6124 4 tri 2855 2875 2849
6125 4 tri 2854 2875 2878
6126 4 tri 2855 2884 2875
6127 4 tri 2964 2956 2938
6128 4 tri 2919 2897 2924
6129 4 tri 2912 2919 2933
6130 4 tri 2894 2897 2919
6131 4 tri 2938 2933 2919
6132 4 tri 2919 2912 2894
6133 4 tri 2894 2912 2890
6134 4 tri 2770 2780 2792
6135 4 tri 2838 2846 2823
6136 4 tri 2807 2792 2780
6137 4 tri 2807 2827 2810
6138 4 tri 2807 2810 2792
6139 4 tri 2838 2823 2810
6140 4 tri 2760 2737 2736
6141 4 tri 2760 2770 2746
6142 4 tri 2780 2770 2760
6143 4 tri 2792 2779 2770
6144 4 tri 2719 2746 2731
6145 4 tri 2737 2760 2746
6146 4 tri 2731 2746 2756
6147 4 tri 2938 2956 2933
6148 4 tri 3042 3053 3026
6149 4 tri 3130 3149 3160
6150 4 tri 3105 3097 3121
6151 4 tri 3130 3121 3149
6152 4 tri 3185 3160 3174
6153 4 tri 3069 3078 3053
6154 4 tri 3042 3069 3053
6155 4 tri 3097 3105 3078
6156 4 tri 3130 3105 3121
6157 4 tri 2999 3029 3014
6158 4 tri 3014 3003 2988
6159 4 tri 2988 3003 2976
6160 4 tri 2936 2946 2924
6161 4 tri 2946 2964 2938
6162 4 tri 2956 2964 2976
6163 4 tri 3014 3042 3026
6164 4 tri 3003 3014 3026
6165 4 tri 3029 3055 3042
6166 4 tri 2999 3014 2988
6167 4 tri 2999 3013 3029
6168 4 tri 2973 2964 2946
6169 4 tri 2938 2924 2946
6170 4 tri 2961 2973 2946
6171 4 tri 2988 2976 2964
6172 4 tri 2999 2973 2984
6173 4 tri 2946 2936 2961
6174 4 tri 2984 2973 2961
6175 4 tri 2999 2988 2973
6176 4 tri 3043 3013 3015
6177 4 tri 3029 3042 3014
6178 4 tri 3043 3029 3013
6179 4 tri 3069 3082 3097
6180 4 tri 3043 3055 3029
6181 4 tri 3043 3071 3055
6182 4 tri 3164 3179 3141
6183 4 tri 3141 3135 3113
6184 4 tri 3055 3069 3042
6185 4 tri 3055 3082 3069
6186 4 tri 3121 3113 3135
6187 4 tri 3082 3107 3113
6188 4 tri 3126 3141 3107
6189 4 tri 3179 3168 3141
6190 4 tri 3141 3168 3135
6191 4 tri 3179 3203 3168
6192 4 tri 3071 3087 3107
6193 4 tri 3158 3188 3194
6194 4 tri 3158 3164 3126
6195 4 tri 3218 3254 3236
6196 4 tri 3116 3158 3126
6197 4 tri 3148 3139 3186
6198 4 tri 3116 3087 3075
6199 4 tri 3126 3107 3087
6200 4 tri 3148 3116 3103
6201 4 tri 3126 3087 3116
6202 4 tri 3103 3075 3059
6203 4 tri 3103 3116 3075
6204 4 tri 3139 3093 3119
6205 4 tri 3103 3059 3093
6206 4 tri 3116 3148 3158
6207 4 tri 3103 3139 3148
6208 4 tri 3205 3161 3166
6209 4 tri 3186 3188 3148
6210 4 tri 3243 3205 3221
6211 4 tri 3161 3119 3125
6212 4 tri 3125 3101 3142
6213 4 tri 3122 3115 3143
6214 4 tri 3122 3162 3142
6215 4 tri 3173 3199 3162
6216 4 tri 3122 3101 3083
6217 4 tri 3142 3166 3125
6218 4 tri 3101 3122 3142
6219 4 tri 3083 3095 3122
6220 4 tri 3040 3080 3050
6221 4 tri 3101 3125 3080
6222 4 tri 3161 3125 3166
6223 4 tri 3119 3080 3125
6224 4 tri 3007 2998 3040
6225 4 tri 3065 3083 3101
6226 4 tri 3027 3017 3051
6227 4 tri 3031 3024 3058
6228 4 tri 3083 3065 3051
6229 4 tri 3080 3040 3065
6230 4 tri 2996 2989 2967
6231 4 tri 2939 2977 2950
6232 4 tri 2958 2996 2967
6233 4 tri 3051 3065 3027
6234 4 tri 3017 3027 2989
6235 4 tri 3040 3050 3007
6236 4 tri 2998 3027 3040
6237 4 tri 2998 2989 3027
6238 4 tri 3018 2977 3007
6239 4 tri 2950 2920 2939
6240 4 tri 3018 3007 3050
6241 4 tri 2977 2939 2968
6242 4 tri 3059 3018 3050
6243 4 tri 3032 3049 3010
6244 4 tri 3093 3059 3050
6245 4 tri 3032 3010 2987
6246 4 tri 2984 2983 3015
6247 4 tri 2987 2977 3018
6248 4 tri 3075 3032 3059
6249 4 tri 3075 3049 3032
6250 4 tri 2953 2983 2957
6251 4 tri 2953 2950 2987
6252 4 tri 2983 2987 3010
6253 4 tri 2983 2953 2987
6254 4 tri 2987 2950 2977
6255 4 tri 2953 2918 2950
6256 4 tri 2954 2934 2967
6257 4 tri 2920 2918 2887
6258 4 tri 2882 2910 2925
6259 4 tri 2968 3007 2977
6260 4 tri 2920 2887 2900
6261 4 tri 2765 2784 2744
6262 4 tri 2848 2816 2820
6263 4 tri 2862 2900 2887
6264 4 tri 2841 2848 2873
6265 4 tri 2887 2918 2880
6266 4 tri 2913 2896 2927
6267 4 tri 2873 2880 2896
6268 4 tri 2848 2820 2851
6269 4 tri 2816 2791 2820
6270 4 tri 2873 2848 2880
6271 4 tri 2841 2816 2848
6272 4 tri 2720 2761 2723
6273 4 tri 2761 2791 2759
6274 4 tri 2785 2791 2816
6275 4 tri 2785 2759 2791
6276 4 tri 2718 2744 2697
6277 4 tri 2784 2798 2761
6278 4 tri 2744 2761 2720
6279 4 tri 2798 2791 2761
6280 4 tri 2851 2825 2862
6281 4 tri 2798 2784 2825
6282 4 tri 2825 2851 2820
6283 4 tri 2862 2887 2851
6284 4 tri 2777 2818 2806
6285 4 tri 2882 2900 2862
6286 4 tri 2688 2738 2718
6287 4 tri 2806 2784 2765
6288 4 tri 2738 2777 2765
6289 4 tri 2842 2825 2806
6290 4 tri 2718 2738 2765
6291 4 tri 2710 2715 2750
6292 4 tri 2713 2753 2715
6293 4 tri 2934 2921 2958
6294 4 tri 2765 2777 2806
6295 4 tri 2843 2797 2832
6296 4 tri 2806 2818 2842
6297 4 tri 2777 2750 2797
6298 4 tri 2818 2863 2842
6299 4 tri 2753 2750 2715
6300 4 tri 2818 2797 2843
6301 4 tri 2877 2921 2892
6302 4 tri 2863 2882 2842
6303 4 tri 2863 2892 2910
6304 4 tri 2863 2910 2882
6305 4 tri 2892 2921 2934
6306 4 tri 2968 2925 2954
6307 4 tri 2939 2900 2925
6308 4 tri 3007 2968 2998
6309 4 tri 2939 2925 2968
6310 4 tri 2989 2954 2967
6311 4 tri 2910 2892 2934
6312 4 tri 2998 2954 2989
6313 4 tri 2925 2910 2954
6314 4 tri 2943 2974 2958
6315 4 tri 3024 3031 2996
6316 4 tri 3006 3041 3011
6317 4 tri 3047 3076 3058
6318 4 tri 2996 2993 3024
6319 4 tri 2993 2958 2974
6320 4 tri 2935 2943 2904
6321 4 tri 2943 2963 2974
6322 4 tri 2993 2974 3009
6323 4 tri 2943 2935 2963
6324 4 tri 2832 2877 2843
6325 4 tri 2904 2921 2877
6326 4 tri 3024 2993 3009
6327 4 tri 2996 2958 2993
6328 4 tri 2790 2797 2753
6329 4 tri 2818 2777 2797
6330 4 tri 2892 2843 2877
6331 4 tri 2863 2818 2843
6332 4 tri 2749 2753 2713
6333 4 tri 2749 2790 2753
6334 4 tri 2794 2790 2749
6335 4 tri 2832 2797 2790
6336 4 tri 2701 2749 2713
6337 4 tri 2766 2794 2749
6338 4 tri 2804 2837 2794
6339 4 tri 2844 2874 2837
6340 4 tri 2794 2832 2790
6341 4 tri 2837 2874 2870
6342 4 tri 2832 2870 2877
6343 4 tri 2832 2794 2837
6344 4 tri 2832 2837 2870
6345 4 tri 2794 2766 2804
6346 4 tri 2733 2773 2766
6347 4 tri 2776 2811 2773
6348 4 tri 2773 2804 2766
6349 4 tri 2844 2837 2804
6350 4 tri 2699 2740 2696
6351 4 tri 2776 2773 2740
6352 4 tri 2817 2811 2776
6353 4 tri 2817 2859 2856
6354 4 tri 2891 2856 2903
6355 4 tri 2844 2811 2856
6356 4 tri 2844 2891 2874
6357 4 tri 2903 2948 2930
6358 4 tri 2895 2917 2935
6359 4 tri 2971 2948 2992
6360 4 tri 2891 2930 2917
6361 4 tri 2891 2903 2930
6362 4 tri 2904 2895 2935
6363 4 tri 2870 2874 2895
6364 4 tri 2917 2949 2935
6365 4 tri 2930 2948 2971
6366 4 tri 2949 2963 2935
6367 4 tri 2949 2980 2963
6368 4 tri 3006 2980 2971
6369 4 tri 2995 2963 2980
6370 4 tri 3021 2971 2992
6371 4 tri 2980 2949 2971
6372 4 tri 3021 3006 2971
6373 4 tri 3047 3079 3076
6374 4 tri 3030 3021 2992
6375 4 tri 3081 3109 3074
6376 4 tri 2982 3030 2992
6377 4 tri 3061 3106 3089
6378 4 tri 3118 3109 3081
6379 4 tri 3021 3030 3056
6380 4 tri 3021 3056 3054
6381 4 tri 3117 3144 3132
6382 4 tri 3041 3081 3074
6383 4 tri 3118 3124 3154
6384 4 tri 3060 3028 3045
6385 4 tri 3006 3021 3041
6386 4 tri 3089 3094 3056
6387 4 tri 3081 3041 3054
6388 4 tri 3074 3045 3041
6389 4 tri 2995 2980 3011
6390 4 tri 2995 3028 3009
6391 4 tri 3090 3074 3109
6392 4 tri 3028 3047 3009
6393 4 tri 3058 3067 3031
6394 4 tri 3017 3031 3051
6395 4 tri 3017 2996 3031
6396 4 tri 3024 3047 3058
6397 4 tri 3028 3060 3047
6398 4 tri 3076 3091 3058
6399 4 tri 3083 3051 3067
6400 4 tri 3011 3045 3028
6401 4 tri 3011 3041 3045
6402 4 tri 3074 3060 3045
6403 4 tri 3079 3047 3060
6404 4 tri 2263 2281 3108
6405 4 tri 3123 3115 3091
6406 4 tri 2281 3091 3076
6407 4 tri 3115 3095 3091
6408 4 tri 3091 3095 3067
6409 4 tri 3115 3122 3095
6410 4 tri 3162 3143 3173
6411 4 tri 3162 3122 3143
6412 4 tri 2230 2245 3165
6413 4 tri 3153 2263 2245
6414 4 tri 3108 3132 2263
6415 4 tri 3108 3117 3132
6416 4 tri 2230 3165 3190
6417 4 tri 2245 3132 3165
6418 4 tri 3144 3136 3169
6419 4 tri 3109 3118 3146
6420 4 tri 3136 3171 3169
6421 4 tri 3136 3146 3171
6422 4 tri 3079 3090 3108
6423 4 tri 3060 3074 3090
6424 4 tri 3109 3117 3090
6425 4 tri 3109 3136 3117
6426 4 tri 3030 3089 3056
6427 4 tri 3106 3134 3089
6428 4 tri 3054 3094 3081
6429 4 tri 3054 3056 3094
6430 4 tri 3124 3118 3094
6431 4 tri 3154 3175 3146
6432 4 tri 3171 3146 3175
6433 4 tri 3136 3109 3146
6434 4 tri 3167 3208 3187
6435 4 tri 3386 3366 3406
6436 4 tri 3235 3252 3269
6437 4 tri 3329 3344 3361
6438 4 tri 3226 3271 3252
6439 4 tri 3289 3274 3237
6440 4 tri 3224 3219 3195
6441 4 tri 3214 3175 3187
6442 4 tri 3256 3269 3286
6443 4 tri 3252 3271 3291
6444 4 tri 3256 3275 3245
6445 4 tri 3171 3175 3207
6446 4 tri 3226 3214 3187
6447 4 tri 3235 3207 3214
6448 4 tri 3235 3224 3207
6449 4 tri 3190 3165 3169
6450 4 tri 3219 3190 3195
6451 4 tri 2211 2193 3230
6452 4 tri 3224 3245 3219
6453 4 tri 3228 3230 3258
6454 4 tri 3256 3245 3224
6455 4 tri 2193 3219 3245
6456 4 tri 3299 2156 3275
6457 4 tri 2156 2174 3275
6458 4 tri 3207 3224 3195
6459 4 tri 3235 3256 3224
6460 4 tri 3269 3256 3235
6461 4 tri 3286 3275 3256
6462 4 tri 3339 3317 3301
6463 4 tri 3333 2137 3299
6464 4 tri 3286 3299 3275
6465 4 tri 3316 3315 3287
6466 4 tri 3317 3299 3286
6467 4 tri 3317 3333 3299
6468 4 tri 3299 2137 2156
6469 4 tri 3333 2119 2137
6470 4 tri 3339 3355 3333
6471 4 tri 3381 3414 3402
6472 4 tri 3361 3355 3339
6473 4 tri 2080 3419 3392
6474 4 tri 3383 2099 3355
6475 4 tri 3392 3414 3381
6476 4 tri 3301 3329 3339
6477 4 tri 3421 3401 3435
6478 4 tri 3361 3383 3355
6479 4 tri 3389 3376 3401
6480 4 tri 3269 3291 3301
6481 4 tri 3386 3400 3372
6482 4 tri 3339 3329 3361
6483 4 tri 3291 3271 3312
6484 4 tri 3291 3312 3329
6485 4 tri 3265 3251 3223
6486 4 tri 3312 3344 3329
6487 4 tri 3312 3331 3344
6488 4 tri 3406 3427 3386
6489 4 tri 3400 3376 3372
6490 4 tri 3344 3376 3361
6491 4 tri 3344 3372 3376
6492 4 tri 3447 3421 3435
6493 4 tri 3421 3408 3389
6494 4 tri 3361 3389 3383
6495 4 tri 3361 3376 3389
6496 4 tri 3408 3421 3437
6497 4 tri 3389 3401 3421
6498 4 tri 3447 3435 3463
6499 4 tri 3401 3400 3435
6500 4 tri 3482 3447 3463
6501 4 tri 3464 3437 3447
6502 4 tri 3427 3439 3400
6503 4 tri 3435 3400 3439
6504 4 tri 3435 3470 3463
6505 4 tri 3507 3539 3536
6506 4 tri 3463 3496 3482
6507 4 tri 3470 3507 3496
6508 4 tri 3467 3512 3507
6509 4 tri 3512 3552 3539
6510 4 tri 3579 3551 3567
6511 4 tri 3496 3507 3536
6512 4 tri 3634 3608 3628
6513 4 tri 3567 3539 3573
6514 4 tri 1974 3551 3579
6515 4 tri 3579 1954 1974
6516 4 tri 3608 1937 1954
6517 4 tri 1902 3699 1883
6518 4 tri 3496 3514 3482
6519 4 tri 3496 3536 3514
6520 4 tri 3494 3514 3528
6521 4 tri 3514 3551 3528
6522 4 tri 3464 3494 2025
6523 4 tri 3543 3578 3570
6524 4 tri 3528 1991 2009
6525 4 tri 3528 3551 1991
6526 4 tri 3598 1974 1954
6527 4 tri 3578 3555 1974
6528 4 tri 3513 3503 3535
6529 4 tri 3522 1991 3555
6530 4 tri 3543 3555 3578
6531 4 tri 3543 3522 3555
6532 4 tri 3522 3503 3493
6533 4 tri 3513 3554 3537
6534 4 tri 1991 3522 2009
6535 4 tri 3543 3535 3522
6536 4 tri 3443 3442 3469
6537 4 tri 2065 3437 2044
6538 4 tri 2044 2025 3469
6539 4 tri 2009 3522 3493
6540 4 tri 3493 2025 2009
6541 4 tri 3493 3469 2025
6542 4 tri 2025 3494 2009
6543 4 tri 3482 3514 3494
6544 4 tri 2080 3408 2065
6545 4 tri 3383 3389 3408
6546 4 tri 3442 2044 3469
6547 4 tri 3437 3464 2044
6548 4 tri 3419 2080 2065
6549 4 tri 2099 3383 2080
6550 4 tri 2065 3442 3419
6551 4 tri 2065 2044 3442
6552 4 tri 3316 3337 3346
6553 4 tri 2099 2080 3392
6554 4 tri 3369 3381 3346
6555 4 tri 3488 3450 3492
6556 4 tri 3346 3381 3373
6557 4 tri 3369 3392 3381
6558 4 tri 3381 3402 3373
6559 4 tri 3438 3468 3432
6560 4 tri 3425 3432 3466
6561 4 tri 3402 3414 3438
6562 4 tri 2099 3392 3369
6563 4 tri 3419 3414 3392
6564 4 tri 3402 3438 3432
6565 4 tri 3414 3419 3443
6566 4 tri 3465 3443 3481
6567 4 tri 3438 3414 3443
6568 4 tri 3522 3535 3503
6569 4 tri 3543 3570 3535
6570 4 tri 3610 3577 3620
6571 4 tri 3554 3570 3589
6572 4 tri 3513 3537 3497
6573 4 tri 3554 3577 3537
6574 4 tri 3620 3577 3589
6575 4 tri 3561 3537 3577
6576 4 tri 3443 3465 3438
6577 4 tri 3481 3497 3465
6578 4 tri 3554 3513 3535
6579 4 tri 3497 3481 3513
6580 4 tri 3497 3511 3468
6581 4 tri 3549 3538 3501
6582 4 tri 3561 3549 3511
6583 4 tri 3561 3577 3610
6584 4 tri 3624 3580 3587
6585 4 tri 3549 3561 3596
6586 4 tri 3609 3592 3642
6587 4 tri 3562 3609 3599
6588 4 tri 3633 3624 3587
6589 4 tri 3580 3538 3587
6590 4 tri 3466 3501 3456
6591 4 tri 3511 3549 3501
6592 4 tri 3592 3541 3580
6593 4 tri 3510 3453 3488
6594 4 tri 3430 3399 3453
6595 4 tri 3280 3328 3281
6596 4 tri 3488 3492 3534
6597 4 tri 3456 3501 3492
6598 4 tri 3402 3432 3397
6599 4 tri 3456 3450 3413
6600 4 tri 3425 3466 3456
6601 4 tri 3468 3511 3466
6602 4 tri 3345 3382 3374
6603 4 tri 3397 3425 3382
6604 4 tri 3334 3358 3382
6605 4 tri 3373 3402 3397
6606 4 tri 3425 3413 3382
6607 4 tri 3365 3323 3328
6608 4 tri 3410 3413 3450
6609 4 tri 3374 3382 3413
6610 4 tri 3238 3280 3281
6611 4 tri 3263 3295 3264
6612 4 tri 3328 3280 3303
6613 4 tri 3243 3221 3264
6614 4 tri 3328 3303 3345
6615 4 tri 3280 3238 3243
6616 4 tri 3199 3228 3233
6617 4 tri 3303 3280 3264
6618 4 tri 3341 3373 3358
6619 4 tri 3303 3264 3295
6620 4 tri 3320 3334 3295
6621 4 tri 3382 3345 3334
6622 4 tri 3397 3358 3373
6623 4 tri 3397 3382 3358
6624 4 tri 3315 3341 3320
6625 4 tri 3358 3334 3320
6626 4 tri 3290 3315 3320
6627 4 tri 3346 3373 3341
6628 4 tri 2137 3316 2156
6629 4 tri 3346 3341 3315
6630 4 tri 2137 3337 3316
6631 4 tri 2119 3369 3337
6632 4 tri 3245 2174 2193
6633 4 tri 3287 3282 3260
6634 4 tri 2156 3287 2174
6635 4 tri 2156 3316 3287
6636 4 tri 3315 3290 3282
6637 4 tri 3320 3295 3290
6638 4 tri 3287 3315 3282
6639 4 tri 3316 3346 3315
6640 4 tri 3263 3258 3290
6641 4 tri 3260 2193 2174
6642 4 tri 3228 3202 3209
6643 4 tri 3176 3153 2245
6644 4 tri 2193 3260 3230
6645 4 tri 2174 3287 3260
6646 4 tri 3219 2211 3190
6647 4 tri 3209 3202 3176
6648 4 tri 3190 2211 2230
6649 4 tri 3219 2193 2211
6650 4 tri 2211 3209 2230
6651 4 tri 3173 3153 3176
6652 4 tri 2230 3209 3176
6653 4 tri 2211 3230 3209
6654 4 tri 3202 3199 3173
6655 4 tri 3233 3263 3264
6656 4 tri 3176 3202 3173
6657 4 tri 3209 3230 3228
6658 4 tri 3263 3228 3258
6659 4 tri 3199 3202 3228
6660 4 tri 3295 3263 3290
6661 4 tri 3264 3221 3233
6662 4 tri 3199 3233 3221
6663 4 tri 3228 3263 3233
6664 4 tri 3280 3243 3264
6665 4 tri 3205 3166 3182
6666 4 tri 3142 3182 3166
6667 4 tri 3162 3199 3182
6668 4 tri 3238 3205 3243
6669 4 tri 3238 3196 3205
6670 4 tri 3205 3196 3161
6671 4 tri 3277 3281 3323
6672 4 tri 3161 3186 3139
6673 4 tri 3196 3238 3234
6674 4 tri 3158 3194 3164
6675 4 tri 3188 3186 3229
6676 4 tri 3231 3232 3270
6677 4 tri 3194 3188 3232
6678 4 tri 3343 3305 3310
6679 4 tri 3254 3231 3270
6680 4 tri 3232 3229 3273
6681 4 tri 3232 3188 3229
6682 4 tri 3186 3234 3229
6683 4 tri 3238 3281 3234
6684 4 tri 3229 3277 3273
6685 4 tri 3234 3281 3277
6686 4 tri 3374 3328 3345
6687 4 tri 3323 3281 3328
6688 4 tri 3410 3365 3374
6689 4 tri 3399 3356 3365
6690 4 tri 3319 3356 3353
6691 4 tri 3356 3399 3395
6692 4 tri 3310 3319 3353
6693 4 tri 3323 3365 3356
6694 4 tri 3273 3319 3310
6695 4 tri 3323 3356 3319
6696 4 tri 3395 3384 3353
6697 4 tri 3284 3311 3297
6698 4 tri 3330 3305 3343
6699 4 tri 3283 3270 3305
6700 4 tri 3370 3330 3343
6701 4 tri 3327 3311 3298
6702 4 tri 3416 3396 3384
6703 4 tri 3343 3353 3384
6704 4 tri 3338 3327 3352
6705 4 tri 3330 3370 3352
6706 4 tri 3393 3378 3405
6707 4 tri 3352 3370 3378
6708 4 tri 3283 3298 3266
6709 4 tri 3330 3352 3327
6710 4 tri 3330 3327 3298
6711 4 tri 3352 3368 3338
6712 4 tri 3257 3236 3266
6713 4 tri 3218 3179 3200
6714 4 tri 3257 3284 3268
6715 4 tri 3298 3311 3284
6716 4 tri 3284 3266 3298
6717 4 tri 3284 3257 3266
6718 4 tri 3270 3283 3254
6719 4 tri 3305 3330 3283
6720 4 tri 3164 3200 3179
6721 4 tri 3194 3232 3231
6722 4 tri 3218 3231 3254
6723 4 tri 3200 3194 3231
6724 4 tri 3225 3203 3236
6725 4 tri 3204 3174 3203
6726 4 tri 3203 3218 3236
6727 4 tri 3203 3179 3218
6728 4 tri 3241 3216 3225
6729 4 tri 3216 3204 3225
6730 4 tri 3225 3236 3257
6731 4 tri 3268 3241 3257
6732 4 tri 3204 3185 3174
6733 4 tri 3297 3268 3284
6734 4 tri 3326 3297 3311
6735 4 tri 3351 3338 3368
6736 4 tri 3326 3311 3338
6737 4 tri 3393 3380 3368
6738 4 tri 3378 3393 3368
6739 4 tri 3423 3404 3393
6740 4 tri 3393 3404 3380
6741 4 tri 3434 3444 3461
6742 4 tri 3485 3498 3526
6743 4 tri 3515 3533 3505
6744 4 tri 3404 3423 3434
6745 4 tri 3475 3490 3461
6746 4 tri 3423 3444 3434
6747 4 tri 3607 3591 3621
6748 4 tri 3475 3505 3490
6749 4 tri 3475 3487 3505
6750 4 tri 3533 3565 3547
6751 4 tri 3648 3617 3656
6752 4 tri 3547 3565 3575
6753 4 tri 3583 3617 3591
6754 4 tri 3542 3565 3533
6755 4 tri 3542 3583 3565
6756 4 tri 3636 3685 3674
6757 4 tri 3617 3583 3595
6758 4 tri 3523 3531 3491
6759 4 tri 3444 3475 3461
6760 4 tri 3531 3526 3498
6761 4 tri 3564 3542 3526
6762 4 tri 3515 3487 3485
6763 4 tri 3515 3505 3487
6764 4 tri 3531 3563 3526
6765 4 tri 3595 3583 3564
6766 4 tri 3423 3429 3444
6767 4 tri 3458 3475 3444
6768 4 tri 3475 3458 3487
6769 4 tri 3429 3423 3405
6770 4 tri 3393 3405 3423
6771 4 tri 3378 3370 3396
6772 4 tri 3444 3429 3458
6773 4 tri 3405 3378 3396
6774 4 tri 3384 3396 3370
6775 4 tri 3429 3405 3396
6776 4 tri 3462 3446 3424
6777 4 tri 3429 3396 3416
6778 4 tri 3485 3446 3462
6779 4 tri 3458 3429 3446
6780 4 tri 3458 3485 3487
6781 4 tri 3458 3446 3485
6782 4 tri 3451 3462 3424
6783 4 tri 3491 3498 3462
6784 4 tri 3416 3384 3424
6785 4 tri 3370 3343 3384
6786 4 tri 3462 3451 3491
6787 4 tri 3424 3395 3430
6788 4 tri 3365 3410 3399
6789 4 tri 3374 3413 3410
6790 4 tri 3424 3430 3451
6791 4 tri 3399 3410 3453
6792 4 tri 3430 3453 3479
6793 4 tri 3410 3450 3453
6794 4 tri 3541 3510 3488
6795 4 tri 3453 3450 3488
6796 4 tri 3453 3510 3479
6797 4 tri 3488 3534 3541
6798 4 tri 3580 3541 3534
6799 4 tri 3562 3599 3560
6800 4 tri 3479 3523 3491
6801 4 tri 3510 3541 3562
6802 4 tri 3491 3531 3498
6803 4 tri 3560 3563 3531
6804 4 tri 3564 3563 3595
6805 4 tri 3564 3526 3563
6806 4 tri 3563 3597 3595
6807 4 tri 3563 3560 3597
6808 4 tri 3510 3562 3523
6809 4 tri 3541 3592 3562
6810 4 tri 3624 3592 3580
6811 4 tri 3609 3562 3592
6812 4 tri 3642 3662 3609
6813 4 tri 3694 3741 3709
6814 4 tri 3636 3644 3685
6815 4 tri 3709 3763 3729
6816 4 tri 3791 3750 3787
6817 4 tri 3644 3662 3685
6818 4 tri 3662 3709 3685
6819 4 tri 3662 3694 3709
6820 4 tri 3750 3724 3787
6821 4 tri 3685 3709 3729
6822 4 tri 3709 3741 3763
6823 4 tri 3694 3731 3741
6824 4 tri 3803 3771 3830
6825 4 tri 3741 3731 3771
6826 4 tri 3813 3803 3856
6827 4 tri 3763 3741 3803
6828 4 tri 3796 3848 3830
6829 4 tri 3881 3856 3830
6830 4 tri 3848 3892 3830
6831 4 tri 3956 3957 3881
6832 4 tri 3772 3821 3787
6833 4 tri 3813 3865 3821
6834 4 tri 3856 3907 3865
6835 4 tri 3724 3772 3787
6836 4 tri 3729 3763 3772
6837 4 tri 3865 3813 3856
6838 4 tri 3821 3772 3813
6839 4 tri 3790 3742 3791
6840 4 tri 3631 3625 3595
6841 4 tri 3787 3847 3832
6842 4 tri 3821 3865 3897
6843 4 tri 3905 3852 3843
6844 4 tri 3832 3894 3885
6845 4 tri 3832 3843 3791
6846 4 tri 3885 3962 3905
6847 4 tri 3812 3852 3870
6848 4 tri 3812 3764 3790
6849 4 tri 3673 3648 3684
6850 4 tri 3750 3791 3742
6851 4 tri 3742 3790 3764
6852 4 tri 3791 3843 3790
6853 4 tri 3666 3674 3708
6854 4 tri 3722 3715 3684
6855 4 tri 3724 3708 3674
6856 4 tri 3750 3742 3708
6857 4 tri 3666 3631 3674
6858 4 tri 3631 3636 3674
6859 4 tri 3772 3724 3729
6860 4 tri 3750 3708 3724
6861 4 tri 3597 3631 3595
6862 4 tri 3597 3599 3636
6863 4 tri 3597 3636 3631
6864 4 tri 3599 3644 3636
6865 4 tri 3595 3625 3617
6866 4 tri 3631 3666 3625
6867 4 tri 3695 3666 3708
6868 4 tri 3695 3656 3666
6869 4 tri 3625 3656 3617
6870 4 tri 3673 3715 3705
6871 4 tri 3695 3684 3656
6872 4 tri 3695 3722 3684
6873 4 tri 3742 3722 3695
6874 4 tri 3742 3764 3722
6875 4 tri 3638 3648 3669
6876 4 tri 3684 3715 3673
6877 4 tri 3754 3744 3715
6878 4 tri 3638 3621 3648
6879 4 tri 3591 3617 3621
6880 4 tri 3617 3648 3621
6881 4 tri 3656 3684 3648
6882 4 tri 3638 3607 3621
6883 4 tri 3800 3777 3754
6884 4 tri 3754 3777 3744
6885 4 tri 3764 3800 3754
6886 4 tri 3812 3851 3800
6887 4 tri 3818 3851 3867
6888 4 tri 3964 3965 3908
6889 4 tri 3965 3867 3908
6890 4 tri 3897 3894 3847
6891 4 tri 3963 3870 3905
6892 4 tri 3964 3908 3870
6893 4 tri 3963 3905 3962
6894 4 tri 3870 3852 3905
6895 4 tri 3962 3885 3961
6896 4 tri 3961 3894 3960
6897 4 tri 3960 3894 3897
6898 4 tri 3958 3959 3865
6899 4 tri 3959 3960 3897
6900 4 tri 3881 3907 3856
6901 4 tri 3957 3958 3907
6902 4 tri 3897 3865 3959
6903 4 tri 3952 3909 3878
6904 4 tri 3950 3951 3884
6905 4 tri 3948 3891 3877
6906 4 tri 3949 3893 3891
6907 4 tri 3840 3789 3801
6908 4 tri 3846 3891 3893
6909 4 tri 3893 3949 3950
6910 4 tri 3878 3884 3951
6911 4 tri 3954 3864 3953
6912 4 tri 3956 3881 3892
6913 4 tri 3892 3888 3955
6914 4 tri 3864 3909 3953
6915 4 tri 3956 3892 3955
6916 4 tri 3881 3830 3892
6917 4 tri 3771 3796 3830
6918 4 tri 3828 3888 3848
6919 4 tri 3909 3853 3878
6920 4 tri 3810 3766 3753
6921 4 tri 3828 3864 3888
6922 4 tri 3828 3810 3864
6923 4 tri 3733 3769 3728
6924 4 tri 3853 3864 3810
6925 4 tri 3853 3810 3799
6926 4 tri 3828 3848 3796
6927 4 tri 3718 3766 3731
6928 4 tri 3718 3753 3766
6929 4 tri 3731 3796 3771
6930 4 tri 3766 3828 3796
6931 4 tri 3642 3682 3694
6932 4 tri 3642 3592 3624
6933 4 tri 3728 3753 3692
6934 4 tri 3799 3810 3753
6935 4 tri 3633 3671 3624
6936 4 tri 3682 3642 3624
6937 4 tri 3692 3753 3718
6938 4 tri 3718 3682 3671
6939 4 tri 3596 3633 3587
6940 4 tri 3596 3610 3645
6941 4 tri 3596 3645 3633
6942 4 tri 3728 3799 3753
6943 4 tri 3633 3692 3671
6944 4 tri 3693 3651 3659
6945 4 tri 3690 3733 3728
6946 4 tri 3840 3826 3789
6947 4 tri 3692 3690 3728
6948 4 tri 3676 3641 3661
6949 4 tri 3645 3610 3651
6950 4 tri 3596 3561 3610
6951 4 tri 3645 3690 3692
6952 4 tri 3645 3651 3690
6953 4 tri 3610 3620 3651
6954 4 tri 3589 3603 3620
6955 4 tri 3676 3659 3641
6956 4 tri 3651 3620 3659
6957 4 tri 3690 3693 3733
6958 4 tri 3690 3651 3693
6959 4 tri 3739 3747 3700
6960 4 tri 3693 3659 3700
6961 4 tri 3739 3774 3784
6962 4 tri 3789 3769 3733
6963 4 tri 3739 3784 3747
6964 4 tri 3801 3789 3747
6965 4 tri 3728 3769 3799
6966 4 tri 3733 3747 3789
6967 4 tri 3784 3801 3747
6968 4 tri 3840 3893 3884
6969 4 tri 3853 3826 3878
6970 4 tri 3769 3789 3826
6971 4 tri 3950 3884 3893
6972 4 tri 3878 3826 3884
6973 4 tri 3846 3801 3784
6974 4 tri 3846 3840 3801
6975 4 tri 3893 3840 3846
6976 4 tri 3884 3826 3840
6977 4 tri 3809 3774 3759
6978 4 tri 3841 3861 3913
6979 4 tri 3759 3770 3809
6980 4 tri 3759 3725 3770
6981 4 tri 3946 3913 3861
6982 4 tri 3809 3770 3819
6983 4 tri 3759 3721 3725
6984 4 tri 1937 3622 1954
6985 4 tri 1883 3712 1902
6986 4 tri 3725 3698 3712
6987 4 tri 3774 3721 3759
6988 4 tri 3676 3661 3698
6989 4 tri 3721 3739 3700
6990 4 tri 3721 3774 3739
6991 4 tri 3721 3676 3698
6992 4 tri 3641 3603 3627
6993 4 tri 3700 3676 3721
6994 4 tri 3700 3659 3676
6995 4 tri 3620 3603 3641
6996 4 tri 3589 3570 3603
6997 4 tri 3578 3598 3603
6998 4 tri 3622 3652 3627
6999 4 tri 3622 3598 1954
7000 4 tri 3627 3603 3598
7001 4 tri 3598 3622 3627
7002 4 tri 1921 3634 3664
7003 4 tri 1921 3652 1937
7004 4 tri 3661 3627 3652
7005 4 tri 3698 3679 3712
7006 4 tri 3698 3661 3679
7007 4 tri 3679 1902 3712
7008 4 tri 3679 3652 1921
7009 4 tri 3622 1937 3652
7010 4 tri 1954 3579 3608
7011 4 tri 3679 1921 1902
7012 4 tri 1937 3608 3634
7013 4 tri 3594 3608 3579
7014 4 tri 3594 3628 3608
7015 4 tri 3664 3634 3628
7016 4 tri 1921 1937 3634
7017 4 tri 3667 3664 3628
7018 4 tri 3699 1902 3664
7019 4 tri 3664 3667 3699
7020 4 tri 3573 3594 3567
7021 4 tri 3667 3706 3699
7022 4 tri 3719 3670 3701
7023 4 tri 3706 3734 3699
7024 4 tri 3737 3782 3767
7025 4 tri 3734 1883 3699
7026 4 tri 3734 1861 1883
7027 4 tri 1822 1808 3900
7028 4 tri 3752 1883 1861
7029 4 tri 1841 3798 1861
7030 4 tri 3819 3770 3798
7031 4 tri 3734 3767 1861
7032 4 tri 1822 3863 1808
7033 4 tri 1841 3767 3814
7034 4 tri 1841 1861 3767
7035 4 tri 3854 3906 3872
7036 4 tri 3814 3767 3782
7037 4 tri 3814 3782 3815
7038 4 tri 3943 1808 3863
7039 4 tri 3834 3819 3798
7040 4 tri 3872 3942 3863
7041 4 tri 3944 3900 1808
7042 4 tri 3944 3945 3900
7043 4 tri 3814 1822 1841
7044 4 tri 3900 3862 3834
7045 4 tri 1841 1822 3834
7046 4 tri 3814 3863 1822
7047 4 tri 3862 3861 3819
7048 4 tri 3913 3877 3841
7049 4 tri 3834 3862 3819
7050 4 tri 3900 3945 3862
7051 4 tri 3891 3825 3877
7052 4 tri 3846 3784 3825
7053 4 tri 3774 3841 3825
7054 4 tri 3809 3861 3841
7055 4 tri 3914 3946 3861
7056 4 tri 3947 3948 3913
7057 4 tri 3945 3914 3862
7058 4 tri 3945 3946 3914
7059 4 tri 3836 3824 3883
7060 4 tri 3942 3943 3863
7061 4 tri 3937 3889 3936
7062 4 tri 3936 3873 3935
7063 4 tri 3890 3835 3850
7064 4 tri 3925 3903 3924
7065 4 tri 3898 3923 3924
7066 4 tri 3926 3868 3925
7067 4 tri 3887 3927 3895
7068 4 tri 3912 3931 3932
7069 4 tri 3901 3930 3931
7070 4 tri 3931 3912 3901
7071 4 tri 3829 3783 3831
7072 4 tri 3933 3882 3890
7073 4 tri 3858 3901 3912
7074 4 tri 3858 3833 3901
7075 4 tri 3816 3839 3879
7076 4 tri 3895 3927 3928
7077 4 tri 3879 3929 3875
7078 4 tri 3879 3839 3895
7079 4 tri 3901 3875 3930
7080 4 tri 3929 3879 3928
7081 4 tri 3849 3910 3898
7082 4 tri 3849 3859 3807
7083 4 tri 3898 3903 3859
7084 4 tri 3923 3910 3922
7085 4 tri 3923 3898 3910
7086 4 tri 3823 3887 3845
7087 4 tri 3868 3926 3887
7088 4 tri 3879 3895 3928
7089 4 tri 3845 3887 3895
7090 4 tri 3875 3816 3879
7091 4 tri 3702 3735 3678
7092 4 tri 3887 3823 3868
7093 4 tri 3773 3730 3723
7094 4 tri 3868 3823 3820
7095 4 tri 3681 3691 3635
7096 4 tri 3740 3794 3761
7097 4 tri 3794 3807 3761
7098 4 tri 3807 3773 3761
7099 4 tri 3823 3845 3780
7100 4 tri 3823 3780 3773
7101 4 tri 3845 3839 3795
7102 4 tri 3845 3795 3780
7103 4 tri 3839 3816 3775
7104 4 tri 3745 3775 3735
7105 4 tri 3795 3839 3775
7106 4 tri 3816 3833 3768
7107 4 tri 3858 3912 3850
7108 4 tri 3901 3833 3875
7109 4 tri 3768 3775 3816
7110 4 tri 3875 3833 3816
7111 4 tri 3858 3805 3833
7112 4 tri 3858 3850 3805
7113 4 tri 3831 3783 3788
7114 4 tri 3890 3850 3912
7115 4 tri 3802 3805 3850
7116 4 tri 3713 3755 3746
7117 4 tri 3788 3783 3746
7118 4 tri 3665 3632 3678
7119 4 tri 3768 3805 3758
7120 4 tri 3713 3746 3677
7121 4 tri 3755 3802 3788
7122 4 tri 3660 3650 3616
7123 4 tri 3746 3783 3748
7124 4 tri 3793 3781 3738
7125 4 tri 3822 3824 3779
7126 4 tri 3783 3793 3748
7127 4 tri 3838 3781 3793
7128 4 tri 3838 3822 3781
7129 4 tri 3838 3889 3874
7130 4 tri 3755 3788 3746
7131 4 tri 3802 3850 3835
7132 4 tri 3876 3829 3831
7133 4 tri 3873 3889 3838
7134 4 tri 3788 3835 3831
7135 4 tri 3788 3802 3835
7136 4 tri 3934 3882 3933
7137 4 tri 3876 3831 3882
7138 4 tri 3933 3890 3932
7139 4 tri 3882 3835 3890
7140 4 tri 3882 3934 3876
7141 4 tri 3869 3874 3938
7142 4 tri 3822 3838 3874
7143 4 tri 3936 3889 3873
7144 4 tri 3939 3883 3938
7145 4 tri 3824 3822 3869
7146 4 tri 3876 3873 3829
7147 4 tri 3876 3935 3873
7148 4 tri 3886 3883 3939
7149 4 tri 3824 3869 3883
7150 4 tri 3836 3854 3804
7151 4 tri 3906 3886 3940
7152 4 tri 3942 3872 3941
7153 4 tri 3815 3782 3765
7154 4 tri 3886 3939 3940
7155 4 tri 3872 3815 3854
7156 4 tri 3863 3814 3815
7157 4 tri 3941 3872 3906
7158 4 tri 3863 3815 3872
7159 4 tri 3824 3836 3786
7160 4 tri 3886 3906 3854
7161 4 tri 3765 3804 3815
7162 4 tri 3836 3886 3854
7163 4 tri 3701 3749 3719
7164 4 tri 3786 3836 3804
7165 4 tri 3732 3779 3736
7166 4 tri 3781 3822 3779
7167 4 tri 3804 3765 3749
7168 4 tri 3782 3737 3765
7169 4 tri 3786 3804 3749
7170 4 tri 3854 3815 3804
7171 4 tri 3667 3646 3689
7172 4 tri 3701 3654 3688
7173 4 tri 3689 3670 3719
7174 4 tri 3646 3628 3612
7175 4 tri 3737 3689 3719
7176 4 tri 3706 3667 3689
7177 4 tri 3688 3654 3639
7178 4 tri 3646 3667 3628
7179 4 tri 3696 3660 3711
7180 4 tri 3736 3786 3749
7181 4 tri 3654 3701 3670
7182 4 tri 3688 3736 3701
7183 4 tri 3732 3736 3688
7184 4 tri 3779 3786 3736
7185 4 tri 3779 3732 3781
7186 4 tri 3687 3639 3650
7187 4 tri 3738 3696 3748
7188 4 tri 3660 3629 3677
7189 4 tri 3793 3738 3748
7190 4 tri 3732 3688 3687
7191 4 tri 3748 3696 3711
7192 4 tri 3616 3584 3629
7193 4 tri 3732 3687 3738
7194 4 tri 3650 3600 3616
7195 4 tri 3687 3650 3696
7196 4 tri 3639 3600 3650
7197 4 tri 3738 3687 3696
7198 4 tri 3688 3639 3687
7199 4 tri 3654 3611 3639
7200 4 tri 3654 3670 3626
7201 4 tri 3559 3584 3616
7202 4 tri 3529 3520 3572
7203 4 tri 3639 3588 3600
7204 4 tri 3568 3552 3521
7205 4 tri 3504 3474 3529
7206 4 tri 3409 3436 3391
7207 4 tri 3588 3540 3550
7208 4 tri 3483 3436 3459
7209 4 tri 3550 3540 3508
7210 4 tri 3588 3611 3568
7211 4 tri 3588 3568 3540
7212 4 tri 3611 3590 3568
7213 4 tri 3470 3467 3507
7214 4 tri 3486 3521 3512
7215 4 tri 3483 3521 3486
7216 4 tri 3540 3568 3521
7217 4 tri 3626 3590 3611
7218 4 tri 3573 3539 3552
7219 4 tri 3654 3626 3611
7220 4 tri 3670 3689 3646
7221 4 tri 3626 3612 3590
7222 4 tri 3628 3594 3612
7223 4 tri 3626 3646 3612
7224 4 tri 3626 3670 3646
7225 4 tri 3512 3467 3486
7226 4 tri 3470 3439 3467
7227 4 tri 3612 3573 3590
7228 4 tri 3612 3594 3573
7229 4 tri 3448 3427 3406
7230 4 tri 3467 3439 3427
7231 4 tri 3436 3406 3391
7232 4 tri 3386 3372 3348
7233 4 tri 3436 3448 3406
7234 4 tri 3436 3483 3448
7235 4 tri 3331 3348 3372
7236 4 tri 3366 3391 3406
7237 4 tri 3309 3322 3348
7238 4 tri 3347 3289 3313
7239 4 tri 3344 3331 3372
7240 4 tri 3312 3271 3292
7241 4 tri 3366 3386 3348
7242 4 tri 3427 3400 3386
7243 4 tri 3226 3251 3271
7244 4 tri 3226 3187 3208
7245 4 tri 3331 3292 3309
7246 4 tri 3331 3312 3292
7247 4 tri 3226 3208 3251
7248 4 tri 3167 3134 3180
7249 4 tri 3265 3223 3222
7250 4 tri 3251 3208 3223
7251 4 tri 3145 3180 3134
7252 4 tri 3180 3181 3222
7253 4 tri 3274 3309 3265
7254 4 tri 3223 3180 3222
7255 4 tri 3292 3265 3309
7256 4 tri 3292 3251 3265
7257 4 tri 3331 3309 3348
7258 4 tri 3274 3222 3237
7259 4 tri 3347 3391 3366
7260 4 tri 3347 3366 3322
7261 4 tri 3222 3181 3237
7262 4 tri 3145 3131 3181
7263 4 tri 3322 3274 3289
7264 4 tri 3265 3222 3274
7265 4 tri 3197 3193 3151
7266 4 tri 3237 3181 3193
7267 4 tri 3304 3360 3308
7268 4 tri 3289 3237 3255
7269 4 tri 3304 3308 3253
7270 4 tri 3367 3409 3347
7271 4 tri 3255 3313 3289
7272 4 tri 3308 3360 3367
7273 4 tri 3422 3411 3360
7274 4 tri 3455 3504 3459
7275 4 tri 3308 3367 3313
7276 4 tri 3455 3474 3504
7277 4 tri 3348 3322 3366
7278 4 tri 3309 3274 3322
7279 4 tri 3289 3347 3322
7280 4 tri 3313 3367 3347
7281 4 tri 3360 3411 3367
7282 4 tri 3504 3508 3459
7283 4 tri 3483 3459 3508
7284 4 tri 3436 3409 3459
7285 4 tri 3367 3411 3409
7286 4 tri 3360 3304 3364
7287 4 tri 3409 3455 3459
7288 4 tri 3411 3474 3455
7289 4 tri 3474 3422 3472
7290 4 tri 3500 3476 3527
7291 4 tri 3520 3472 3524
7292 4 tri 3417 3385 3440
7293 4 tri 3524 3500 3553
7294 4 tri 3418 3385 3354
7295 4 tri 3500 3440 3476
7296 4 tri 3417 3364 3357
7297 4 tri 3477 3440 3500
7298 4 tri 3477 3417 3440
7299 4 tri 3477 3472 3417
7300 4 tri 3474 3411 3422
7301 4 tri 3524 3472 3477
7302 4 tri 3520 3474 3472
7303 4 tri 3259 3302 3250
7304 4 tri 3364 3422 3360
7305 4 tri 3250 3302 3304
7306 4 tri 3417 3422 3364
7307 4 tri 3253 3189 3250
7308 4 tri 3197 3127 3189
7309 4 tri 3304 3253 3250
7310 4 tri 3308 3255 3253
7311 4 tri 3247 3211 3198
7312 4 tri 3272 3259 3211
7313 4 tri 3321 3259 3272
7314 4 tri 3250 3206 3259
7315 4 tri 3321 3302 3259
7316 4 tri 3321 3385 3357
7317 4 tri 3417 3357 3385
7318 4 tri 3364 3302 3357
7319 4 tri 3354 3300 3342
7320 4 tri 3247 3198 3239
7321 4 tri 3191 3239 3198
7322 4 tri 3217 3249 3261
7323 4 tri 3294 3247 3239
7324 4 tri 3272 3211 3247
7325 4 tri 3152 3191 3198
7326 4 tri 3150 3178 3191
7327 4 tri 3285 3324 3293
7328 4 tri 3294 3300 3247
7329 4 tri 3249 3285 3293
7330 4 tri 3342 3300 3294
7331 4 tri 3261 3293 3294
7332 4 tri 3324 3363 3332
7333 4 tri 3407 3426 3377
7334 4 tri 3418 3440 3385
7335 4 tri 3449 3428 3457
7336 4 tri 3452 3476 3418
7337 4 tri 3394 3354 3342
7338 4 tri 3385 3321 3354
7339 4 tri 3426 3452 3394
7340 4 tri 3476 3440 3418
7341 4 tri 3478 3452 3426
7342 4 tri 3509 3527 3476
7343 4 tri 3558 3557 3509
7344 4 tri 3553 3500 3527
7345 4 tri 3407 3454 3426
7346 4 tri 3516 3509 3478
7347 4 tri 3478 3509 3452
7348 4 tri 3675 3630 3657
7349 4 tri 3516 3558 3509
7350 4 tri 3571 3530 3545
7351 4 tri 3649 3605 3658
7352 4 tri 3558 3586 3605
7353 4 tri 3723 3681 3697
7354 4 tri 3605 3630 3658
7355 4 tri 3710 3758 3755
7356 4 tri 3581 3557 3602
7357 4 tri 3602 3649 3635
7358 4 tri 3697 3761 3723
7359 4 tri 3605 3557 3558
7360 4 tri 3605 3649 3602
7361 4 tri 3581 3602 3635
7362 4 tri 3557 3605 3602
7363 4 tri 3604 3581 3635
7364 4 tri 3553 3527 3581
7365 4 tri 3691 3655 3635
7366 4 tri 3582 3553 3604
7367 4 tri 3529 3572 3584
7368 4 tri 3520 3569 3572
7369 4 tri 3632 3582 3604
7370 4 tri 3569 3524 3582
7371 4 tri 3632 3618 3582
7372 4 tri 3665 3619 3618
7373 4 tri 3616 3629 3660
7374 4 tri 3584 3572 3629
7375 4 tri 3655 3632 3604
7376 4 tri 3717 3735 3768
7377 4 tri 3635 3655 3604
7378 4 tri 3691 3730 3745
7379 4 tri 3655 3678 3632
7380 4 tri 3655 3691 3702
7381 4 tri 3619 3665 3663
7382 4 tri 3618 3632 3665
7383 4 tri 3660 3677 3711
7384 4 tri 3629 3663 3677
7385 4 tri 3665 3710 3663
7386 4 tri 3665 3678 3717
7387 4 tri 3663 3713 3677
7388 4 tri 3710 3755 3713
7389 4 tri 3710 3717 3758
7390 4 tri 3735 3775 3768
7391 4 tri 3678 3735 3717
7392 4 tri 3702 3691 3745
7393 4 tri 3780 3730 3773
7394 4 tri 3780 3795 3745
7395 4 tri 3780 3745 3730
7396 4 tri 3795 3775 3745
7397 4 tri 3658 3697 3649
7398 4 tri 3730 3691 3681
7399 4 tri 3735 3702 3745
7400 4 tri 3678 3655 3702
7401 4 tri 3649 3697 3681
7402 4 tri 3740 3707 3762
7403 4 tri 3658 3707 3697
7404 4 tri 3658 3630 3675
7405 4 tri 3773 3723 3761
7406 4 tri 3730 3681 3723
7407 4 tri 3697 3740 3761
7408 4 tri 3707 3726 3762
7409 4 tri 3516 3544 3558
7410 4 tri 3614 3601 3640
7411 4 tri 3484 3457 3480
7412 4 tri 3530 3571 3544
7413 4 tri 3558 3544 3586
7414 4 tri 3516 3495 3544
7415 4 tri 3532 3517 3502
7416 4 tri 3545 3530 3506
7417 4 tri 3548 3545 3517
7418 4 tri 3571 3586 3544
7419 4 tri 3576 3571 3545
7420 4 tri 3683 3647 3680
7421 4 tri 3576 3601 3571
7422 4 tri 3576 3593 3615
7423 4 tri 3548 3566 3576
7424 4 tri 3623 3643 3653
7425 4 tri 3480 3471 3499
7426 4 tri 3546 3574 3556
7427 4 tri 3606 3637 3613
7428 4 tri 3556 3566 3532
7429 4 tri 3585 3566 3556
7430 4 tri 3499 3532 3502
7431 4 tri 3525 3556 3532
7432 4 tri 3545 3548 3576
7433 4 tri 3517 3532 3548
7434 4 tri 3441 3471 3445
7435 4 tri 3502 3517 3484
7436 4 tri 3445 3471 3480
7437 4 tri 3460 3489 3471
7438 4 tri 3480 3499 3502
7439 4 tri 3471 3489 3499
7440 4 tri 3433 3441 3415
7441 4 tri 3445 3428 3420
7442 4 tri 3457 3445 3480
7443 4 tri 3420 3415 3441
7444 4 tri 3420 3428 3398
7445 4 tri 3506 3484 3517
7446 4 tri 3445 3457 3428
7447 4 tri 3480 3502 3484
7448 4 tri 3390 3412 3431
7449 4 tri 3398 3428 3412
7450 4 tri 3473 3449 3484
7451 4 tri 3412 3428 3449
7452 4 tri 3545 3506 3517
7453 4 tri 3449 3457 3484
7454 4 tri 3495 3473 3506
7455 4 tri 3473 3484 3506
7456 4 tri 3530 3495 3506
7457 4 tri 3454 3407 3431
7458 4 tri 3544 3495 3530
7459 4 tri 3516 3478 3495
7460 4 tri 3390 3431 3407
7461 4 tri 3412 3449 3431
7462 4 tri 3426 3454 3478
7463 4 tri 3431 3473 3454
7464 4 tri 3377 3363 3407
7465 4 tri 3375 3371 3398
7466 4 tri 3388 3398 3371
7467 4 tri 3349 3375 3390
7468 4 tri 3349 3340 3375
7469 4 tri 3278 3314 3285
7470 4 tri 3340 3371 3375
7471 4 tri 3278 3307 3314
7472 4 tri 3307 3318 3336
7473 4 tri 3293 3324 3332
7474 4 tri 3314 3349 3324
7475 4 tri 3332 3363 3377
7476 4 tri 3324 3349 3363
7477 4 tri 3246 3285 3249
7478 4 tri 3314 3324 3285
7479 4 tri 3294 3293 3332
7480 4 tri 3261 3249 3293
7481 4 tri 3140 3178 3150
7482 4 tri 3140 3172 3178
7483 4 tri 3172 3210 3178
7484 4 tri 3212 3246 3210
7485 4 tri 3147 3177 3156
7486 4 tri 3213 3242 3212
7487 4 tri 3177 3213 3183
7488 4 tri 3244 3227 3262
7489 4 tri 3242 3278 3246
7490 4 tri 3276 3307 3278
7491 4 tri 3314 3307 3340
7492 4 tri 3288 3262 3279
7493 4 tri 3276 3244 3262
7494 4 tri 3242 3213 3244
7495 4 tri 3156 3177 3183
7496 4 tri 3170 3201 3177
7497 4 tri 3177 3201 3213
7498 4 tri 3170 3163 3192
7499 4 tri 3170 3192 3201
7500 4 tri 3163 3159 3184
7501 4 tri 3192 3220 3201
7502 4 tri 3192 3184 3215
7503 4 tri 3248 3227 3220
7504 4 tri 3244 3213 3227
7505 4 tri 3227 3248 3262
7506 4 tri 3220 3240 3248
7507 4 tri 3288 3279 3306
7508 4 tri 3262 3248 3279
7509 4 tri 3267 3296 3279
7510 4 tri 3387 3415 3388
7511 4 tri 3318 3288 3306
7512 4 tri 3276 3262 3288
7513 4 tri 3335 3318 3306
7514 4 tri 3307 3288 3318
7515 4 tri 3340 3336 3371
7516 4 tri 3340 3307 3336
7517 4 tri 3371 3359 3388
7518 4 tri 3336 3318 3335
7519 4 tri 3359 3336 3335
7520 4 tri 3335 3362 3359
7521 4 tri 3379 3403 3387
7522 4 tri 3379 3362 3350
7523 4 tri 3387 3359 3362
7524 4 tri 3335 3325 3350
7525 4 tri 3279 3296 3306
7526 4 tri 3350 3362 3335
7527 4 tri 3220 3215 3240
7528 4 tri 3306 3296 3325
7529 4 tri 3163 3184 3192
7530 4 tri 3192 3215 3220
7531 4 tri 3362 3379 3387
7532 4 tri 3471 3441 3460
7533 4 tri 3415 3403 3433
7534 4 tri 3420 3441 3445
7535 4 tri 3433 3460 3441
7536 4 tri 3546 3525 3518
7537 4 tri 3499 3518 3525
7538 4 tri 3556 3525 3546
7539 4 tri 3585 3574 3606
7540 4 tri 3585 3556 3574
7541 4 tri 3714 3704 3743
7542 4 tri 3842 3866 3899
7543 4 tri 3797 3776 3817
7544 4 tri 3776 3751 3743
7545 4 tri 3720 3680 3686
7546 4 tri 3817 3842 3797
7547 4 tri 3613 3637 3643
7548 4 tri 3637 3668 3643
7549 4 tri 3585 3613 3593
7550 4 tri 3585 3606 3613
7551 4 tri 3643 3672 3653
7552 4 tri 3668 3704 3672
7553 4 tri 3704 3714 3672
7554 4 tri 3714 3720 3686
7555 4 tri 3714 3686 3672
7556 4 tri 3714 3751 3756
7557 4 tri 3756 3760 3720
7558 4 tri 3727 3757 3703
7559 4 tri 3576 3615 3601
7560 4 tri 3593 3623 3615
7561 4 tri 3647 3623 3653
7562 4 tri 3593 3613 3623
7563 4 tri 3614 3640 3657
7564 4 tri 3601 3615 3640
7565 4 tri 3707 3675 3726
7566 4 tri 3630 3586 3614
7567 4 tri 3571 3614 3586
7568 4 tri 3571 3601 3614
7569 4 tri 3703 3675 3657
7570 4 tri 3707 3658 3675
7571 4 tri 3640 3683 3657
7572 4 tri 3756 3720 3714
7573 4 tri 3720 3760 3716
7574 4 tri 3844 3785 3806
7575 4 tri 3716 3683 3680
7576 4 tri 3703 3657 3683
7577 4 tri 3683 3716 3727
7578 4 tri 3680 3720 3716
7579 4 tri 3716 3760 3727
7580 4 tri 3778 3757 3727
7581 4 tri 3910 3902 3922
7582 4 tri 3740 3762 3794
7583 4 tri 3726 3757 3785
7584 4 tri 3860 3811 3844
7585 4 tri 3762 3726 3785
7586 4 tri 3849 3811 3860
7587 4 tri 3849 3794 3811
7588 4 tri 3757 3806 3785
7589 4 tri 3792 3760 3756
7590 4 tri 3785 3844 3811
7591 4 tri 3806 3837 3857
7592 4 tri 3778 3837 3806
7593 4 tri 3911 3871 3917
7594 4 tri 3778 3808 3837
7595 4 tri 3827 3842 3871
7596 4 tri 3855 3808 3827
7597 4 tri 3778 3727 3760
7598 4 tri 3837 3808 3855
7599 4 tri 3778 3760 3808
7600 4 tri 3776 3797 3751
7601 4 tri 3792 3808 3760
7602 4 tri 3751 3797 3756
7603 4 tri 3827 3808 3792
7604 4 tri 3792 3797 3827
7605 4 tri 3792 3756 3797
7606 4 tri 3797 3842 3827
7607 4 tri 3817 3866 3842
7608 4 tri 3916 3871 3899
7609 4 tri 3916 3917 3871
7610 4 tri 3855 3911 3880
7611 4 tri 3920 3904 3919
7612 4 tri 3904 3896 3857
7613 4 tri 3837 3855 3880
7614 4 tri 3871 3911 3855
7615 4 tri 3917 3918 3911
7616 4 tri 3806 3857 3844
7617 4 tri 3837 3880 3904
7618 4 tri 3857 3896 3844
7619 4 tri 3919 3880 3918
7620 4 tri 3896 3902 3844
7621 4 tri 3910 3849 3860
7622 4 tri 3844 3902 3860
7623 4 tri 3896 3921 3902
7624 4 tri 3921 3896 3920
7625 4 tri 3896 3904 3920
7626 4 tri 3857 3837 3904
7627 4 tri 3904 3880 3919
7628 5 tri 4171 4163 4123
7629 5 tri 4107 4089 4048
7630 5 tri 4172 4166 4126
7631 5 tri 4145 4174 4132
7632 5 tri 4503 4529 4511
7633 5 tri 4194 4206 4238
7634 5 tri 4503 4492 4476
7635 5 tri 4567 4540 4570
7636 5 tri 4599 4582 4583
7637 5 tri 4366 4326 4345
7638 5 tri 4971 4927 4950
7639 5 tri 4555 4546 4578
7640 5 tri 5282 5234 5281
7641 5 tri 4277 4300 4285
7642 5 tri 4427 4405 4403
7643 5 tri 3989 3988 4053
7644 5 tri 4102 4075 4121
7645 5 tri 4096 4091 4043
7646 5 tri 4030 4083 4081
7647 5 tri 4081 4111 4066
7648 5 tri 4027 4068 4085
7649 5 tri 4020 3999 4040
7650 5 tri 4171 4131 4175
7651 5 tri 4503 4480 4516
7652 5 tri 4461 4506 4496
7653 5 tri 4283 4272 4240
7654 5 tri 4097 4032 4072
7655 5 tri 4323 4283 4293
7656 5 tri 4288 4279 4249
7657 5 tri 4664 4641 4632
7658 5 tri 4878 4864 4885
7659 5 tri 4363 4367 4344
7660 5 tri 4982 5007 4967
7661 5 tri 5269 5202 5268
7662 5 tri 5039 4999 5032
7663 5 tri 5085 5107 5068
7664 5 tri 5252 5228 5251
7665 5 tri 5040 5014 5059
7666 5 tri 5102 5140 5155
7667 5 tri 4697 4708 4671
7668 5 tri 3575 4957 4930
7669 5 tri 2537 4088 2494
7670 5 tri 4464 4467 4485
7671 5 tri 2676 4268 4245
7672 5 tri 4521 2976 3003
7673 5 tri 4263 4226 4233
7674 5 tri 3461 4842 3434
7675 5 tri 4334 2779 4356
7676 5 tri 4404 2869 4428
7677 5 tri 4273 4233 4236
7678 5 tri 4414 4404 4428
7679 5 tri 4302 4343 4311
7680 5 tri 4125 4162 4181
7681 5 tri 4093 4049 4071
7682 5 tri 4353 4359 4394
7683 5 tri 4018 4068 4027
7684 5 tri 4496 4457 4461
7685 5 tri 4503 4516 4529
7686 5 tri 4118 4092 4069
7687 5 tri 4069 4092 4050
7688 5 tri 4118 4161 4143
7689 5 tri 4162 4214 4181
7690 5 tri 4059 4101 4035
7691 5 tri 4052 4043 3982
7692 5 tri 3970 3969 4049
7693 5 tri 4127 4078 4111
7694 5 tri 4154 4187 4139
7695 5 tri 4271 4286 4241
7696 5 tri 4240 4207 4248
7697 5 tri 4158 4178 4129
7698 5 tri 4229 4211 4196
7699 5 tri 4121 4132 4159
7700 5 tri 4025 4014 4038
7701 5 tri 4270 4280 4254
7702 5 tri 4188 4224 4209
7703 5 tri 4367 4355 4344
7704 5 tri 4384 4390 4369
7705 5 tri 4346 4355 4369
7706 5 tri 4639 4624 4619
7707 5 tri 4555 4553 4529
7708 5 tri 4440 4430 4421
7709 5 tri 4468 4476 4492
7710 5 tri 4225 4269 4235
7711 5 tri 4307 4272 4312
7712 5 tri 4303 4318 4331
7713 5 tri 4323 4333 4365
7714 5 tri 4296 4327 4288
7715 5 tri 4391 4389 4352
7716 5 tri 4312 4283 4323
7717 5 tri 4652 4692 4667
7718 5 tri 5044 5016 5064
7719 5 tri 4911 4948 4899
7720 5 tri 5035 5036 5075
7721 5 tri 5027 5033 5065
7722 5 tri 5173 5158 5117
7723 5 tri 5205 5215 5275
7724 5 tri 5141 5099 5164
7725 5 tri 4986 4944 4965
7726 5 tri 4743 4725 4773
7727 5 tri 4837 4831 4812
7728 5 tri 4727 4686 4689
7729 5 tri 4844 4815 4861
7730 5 tri 4579 4569 4589
7731 5 tri 4713 4738 4709
7732 5 tri 4666 4650 4674
7733 5 tri 4975 5003 4992
7734 5 tri 5015 4969 5012
7735 5 tri 4662 4644 4657
7736 5 tri 4675 4663 4637
7737 5 tri 4929 4910 4945
7738 5 tri 5077 5075 5120
7739 5 tri 5031 5045 5009
7740 5 tri 5147 5202 5192
7741 5 tri 5084 5055 5108
7742 5 tri 5120 5121 5168
7743 5 tri 5149 5109 5156
7744 5 tri 5146 5100 5127
7745 5 tri 5101 5087 5135
7746 5 tri 5117 5114 5073
7747 5 tri 5181 5145 5135
7748 5 tri 5193 5264 5265
7749 5 tri 5124 5174 5147
7750 5 tri 5237 5247 5196
7751 5 tri 5196 5155 5185
7752 5 tri 5196 5248 5230
7753 5 tri 5201 5149 5156
7754 5 tri 5137 5082 5107
7755 5 tri 5220 5175 5204
7756 5 tri 5122 5098 5143
7757 5 tri 5085 5133 5107
7758 5 tri 5133 5186 5154
7759 5 tri 4604 4573 4564
7760 5 tri 3078 4577 3053
7761 5 tri 4782 4748 4740
7762 5 tri 4872 4901 4888
7763 5 tri 4632 4641 4610
7764 5 tri 4616 4604 4647
7765 5 tri 4612 4638 4632
7766 5 tri 4775 4750 4733
7767 5 tri 4695 4718 4715
7768 5 tri 4796 4819 4824
7769 5 tri 4808 4835 4819
7770 5 tri 3575 3607 4957
7771 5 tri 4732 4754 4758
7772 5 tri 4906 3547 4930
7773 5 tri 4649 4658 4642
7774 5 tri 4690 4719 4697
7775 5 tri 4696 3216 3241
7776 5 tri 4763 4759 4744
7777 5 tri 4711 4732 4734
7778 5 tri 3404 4822 4801
7779 5 tri 4887 3490 3519
7780 5 tri 5091 5134 5093
7781 5 tri 4914 4930 4939
7782 5 tri 3638 4980 3607
7783 5 tri 5089 5054 3744
7784 5 tri 4925 4914 4939
7785 5 tri 5006 5043 5021
7786 5 tri 3575 4930 3547
7787 5 tri 5091 5093 5057
7788 5 tri 5190 5144 5150
7789 5 tri 4230 4217 4189
7790 5 tri 4037 4021 3968
7791 5 tri 4135 4071 4120
7792 5 tri 4204 4173 4217
7793 5 tri 4037 4087 4071
7794 5 tri 4172 4126 4135
7795 5 tri 4150 4164 4189
7796 5 tri 4285 4258 4277
7797 5 tri 4087 4117 4150
7798 5 tri 4182 2646 4221
7799 5 tri 2676 2707 4268
7800 5 tri 4310 2756 4334
7801 5 tri 2756 2779 4334
7802 5 tri 4164 4141 4182
7803 5 tri 4583 4577 4593
7804 5 tri 4611 4618 4630
7805 5 tri 4634 3130 3160
7806 5 tri 4505 4502 4521
7807 5 tri 2912 4448 2890
7808 5 tri 4433 4427 4414
7809 5 tri 4448 4428 2890
7810 5 tri 4537 3026 4556
7811 5 tri 4621 4617 4599
7812 5 tri 4537 4541 4521
7813 5 tri 4649 4642 4630
7814 5 tri 4593 4577 4598
7815 5 tri 4487 4479 4502
7816 5 tri 4608 4626 4588
7817 5 tri 4525 4505 4521
7818 5 tri 4348 4368 4361
7819 5 tri 4245 4258 4230
7820 5 tri 2846 4404 4376
7821 5 tri 4334 4348 4325
7822 5 tri 4449 4464 4442
7823 5 tri 4315 4347 4342
7824 5 tri 4395 4379 4405
7825 5 tri 4348 4336 4325
7826 5 tri 2731 4294 4268
7827 5 tri 4313 4308 4285
7828 5 tri 4251 4217 4230
7829 5 tri 4325 4336 4313
7830 5 tri 4243 4259 4284
7831 5 tri 4298 4321 4284
7832 5 tri 4193 4203 4157
7833 5 tri 4116 4165 4137
7834 5 tri 4213 4226 4255
7835 5 tri 4058 3972 4067
7836 5 tri 4236 4233 4193
7837 5 tri 4320 4358 4345
7838 5 tri 4246 4289 4278
7839 5 tri 4275 4237 4251
7840 5 tri 4156 4193 4140
7841 5 tri 4236 4243 4281
7842 5 tri 4362 4361 4379
7843 5 tri 4377 4387 4411
7844 5 tri 4632 4600 4612
7845 5 tri 4347 4321 4354
7846 5 tri 4469 4437 4441
7847 5 tri 4643 4604 4609
7848 5 tri 4597 4582 4599
7849 5 tri 4371 4375 4415
7850 5 tri 4517 4488 4501
7851 5 tri 4609 4574 4584
7852 5 tri 4534 4513 4497
7853 5 tri 4304 4342 4335
7854 5 tri 4415 4408 4438
7855 5 tri 4335 4375 4371
7856 5 tri 4518 4491 4508
7857 5 tri 4287 4305 4326
7858 5 tri 4552 4534 4571
7859 5 tri 4489 4459 4504
7860 5 tri 4439 4397 4415
7861 5 tri 4557 4562 4523
7862 5 tri 4435 4470 4423
7863 5 tri 4366 4402 4383
7864 5 tri 4504 4532 4544
7865 5 tri 4519 4547 4498
7866 5 tri 4444 4402 4419
7867 5 tri 4373 4350 4383
7868 5 tri 4223 4262 4222
7869 5 tri 4399 4394 4359
7870 5 tri 4234 4253 4214
7871 5 tri 4302 4311 4274
7872 5 tri 4143 4190 4168
7873 5 tri 4153 4186 4213
7874 5 tri 4263 4233 4273
7875 5 tri 4148 4194 4184
7876 5 tri 4345 4358 4382
7877 5 tri 4110 4052 4060
7878 5 tri 4152 4198 4183
7879 5 tri 4137 4186 4153
7880 5 tri 4194 4238 4228
7881 5 tri 4016 4066 4078
7882 5 tri 4130 4169 4179
7883 5 tri 4041 4098 4069
7884 5 tri 4222 4262 4261
7885 5 tri 4050 3991 4017
7886 5 tri 3990 3989 4041
7887 5 tri 3984 4039 4030
7888 5 tri 3983 4039 3984
7889 5 tri 4030 4081 4024
7890 5 tri 4130 4179 4133
7891 5 tri 3983 4043 4039
7892 5 tri 4093 4074 4049
7893 5 tri 4115 4108 4067
7894 5 tri 4058 3973 3972
7895 5 tri 4109 4116 4064
7896 5 tri 3980 4026 4060
7897 5 tri 3981 4052 3982
7898 5 tri 3996 4042 3997
7899 5 tri 4138 4160 4195
7900 5 tri 4098 4118 4069
7901 5 tri 4249 4261 4288
7902 5 tri 4202 4160 4168
7903 5 tri 4215 4216 4252
7904 5 tri 4146 4161 4118
7905 5 tri 4223 4214 4253
7906 5 tri 4073 4020 4040
7907 5 tri 4086 4080 4131
7908 5 tri 4160 4202 4195
7909 5 tri 4040 3998 4036
7910 5 tri 4073 4086 4123
7911 5 tri 4042 3996 4048
7912 5 tri 4114 4082 4062
7913 5 tri 4079 4103 4139
7914 5 tri 4145 4132 4094
7915 5 tri 4272 4265 4231
7916 5 tri 4208 4242 4241
7917 5 tri 4247 4220 4205
7918 5 tri 4191 4149 4185
7919 5 tri 4082 4114 4142
7920 5 tri 4047 4044 4009
7921 5 tri 4007 4006 4046
7922 5 tri 4046 4057 4105
7923 5 tri 4062 4023 4079
7924 5 tri 4180 4144 4159
7925 5 tri 4121 4075 4132
7926 5 tri 4025 4015 4014
7927 5 tri 4075 4038 4094
7928 5 tri 4063 4025 4075
7929 5 tri 4097 4045 4032
7930 5 tri 4038 4013 4045
7931 5 tri 4256 4270 4244
7932 5 tri 4317 4324 4337
7933 5 tri 4319 4332 4306
7934 5 tri 4331 4346 4324
7935 5 tri 4290 4306 4318
7936 5 tri 4390 4401 4409
7937 5 tri 4346 4360 4337
7938 5 tri 4132 4174 4159
7939 5 tri 4209 4229 4196
7940 5 tri 4331 4355 4346
7941 5 tri 4346 4337 4324
7942 5 tri 4254 4267 4239
7943 5 tri 4301 4295 4280
7944 5 tri 4462 4447 4440
7945 5 tri 4447 4455 4436
7946 5 tri 4526 4528 4549
7947 5 tri 4378 4369 4390
7948 5 tri 4384 4369 4355
7949 5 tri 4481 4463 4462
7950 5 tri 4440 4445 4468
7951 5 tri 4528 4511 4529
7952 5 tri 4509 4520 4500
7953 5 tri 4627 4640 4651
7954 5 tri 4558 4579 4568
7955 5 tri 4535 4540 4567
7956 5 tri 4602 4575 4613
7957 5 tri 4538 4575 4570
7958 5 tri 4663 4701 4684
7959 5 tri 4480 4451 4472
7960 5 tri 4341 4316 4299
7961 5 tri 4468 4456 4476
7962 5 tri 4388 4401 4384
7963 5 tri 4510 4535 4499
7964 5 tri 4546 4529 4516
7965 5 tri 4374 4370 4340
7966 5 tri 4242 4271 4241
7967 5 tri 4129 4112 4158
7968 5 tri 4167 4142 4114
7969 5 tri 4174 4145 4188
7970 5 tri 4242 4235 4282
7971 5 tri 4158 4197 4208
7972 5 tri 4319 4340 4351
7973 5 tri 4269 4316 4282
7974 5 tri 4307 4265 4272
7975 5 tri 4316 4309 4282
7976 5 tri 4319 4286 4309
7977 5 tri 4416 4393 4420
7978 5 tri 4339 4340 4309
7979 5 tri 4225 4260 4269
7980 5 tri 4341 4307 4349
7981 5 tri 4197 4191 4235
7982 5 tri 4231 4199 4240
7983 5 tri 4260 4265 4299
7984 5 tri 4218 4187 4231
7985 5 tri 4296 4288 4261
7986 5 tri 4143 4168 4119
7987 5 tri 4292 4252 4257
7988 5 tri 4195 4170 4138
7989 5 tri 4248 4293 4283
7990 5 tri 4292 4257 4279
7991 5 tri 4322 4314 4279
7992 5 tri 4333 4293 4292
7993 5 tri 4410 4446 4399
7994 5 tri 4380 4365 4333
7995 5 tri 4296 4291 4329
7996 5 tri 4359 4353 4322
7997 5 tri 4323 4365 4352
7998 5 tri 4333 4314 4353
7999 5 tri 4496 4538 4514
8000 5 tri 4707 4679 4724
8001 5 tri 4506 4548 4538
8002 5 tri 4809 4793 4767
8003 5 tri 4435 4399 4446
8004 5 tri 4452 4471 4498
8005 5 tri 4543 4515 4562
8006 5 tri 4519 4471 4489
8007 5 tri 4675 4679 4707
8008 5 tri 4689 4633 4665
8009 5 tri 4567 4570 4595
8010 5 tri 4613 4590 4635
8011 5 tri 4841 4828 4802
8012 5 tri 4701 4663 4675
8013 5 tri 4841 4814 4855
8014 5 tri 4809 4767 4777
8015 5 tri 4665 4614 4645
8016 5 tri 4984 4991 5027
8017 5 tri 4793 4834 4814
8018 5 tri 5010 5035 5055
8019 5 tri 4971 4954 4927
8020 5 tri 4765 4784 4735
8021 5 tri 5022 4982 4997
8022 5 tri 4967 4935 4982
8023 5 tri 5067 5097 5123
8024 5 tri 5007 4982 5022
8025 5 tri 4902 4881 4922
8026 5 tri 5000 4967 5007
8027 5 tri 5095 5126 5142
8028 5 tri 5000 4959 4967
8029 5 tri 4947 4898 4926
8030 5 tri 4826 4777 4795
8031 5 tri 4911 4959 4948
8032 5 tri 4839 4790 4820
8033 5 tri 4867 4877 4895
8034 5 tri 4623 4640 4615
8035 5 tri 4828 4841 4865
8036 5 tri 4889 4902 4928
8037 5 tri 4965 4922 4947
8038 5 tri 4889 4852 4865
8039 5 tri 5072 5031 5051
8040 5 tri 5066 5034 5084
8041 5 tri 5094 5051 5062
8042 5 tri 4944 4928 4902
8043 5 tri 4867 4895 4880
8044 5 tri 4885 4896 4878
8045 5 tri 5031 4994 5017
8046 5 tri 4945 4928 4969
8047 5 tri 4794 4791 4764
8048 5 tri 4731 4746 4701
8049 5 tri 4749 4752 4771
8050 5 tri 4817 4791 4794
8051 5 tri 4764 4730 4768
8052 5 tri 4731 4701 4707
8053 5 tri 4629 4650 4623
8054 5 tri 4724 4751 4707
8055 5 tri 4738 4772 4768
8056 5 tri 4595 4602 4628
8057 5 tri 4713 4746 4738
8058 5 tri 4684 4681 4654
8059 5 tri 4747 4764 4769
8060 5 tri 4705 4729 4726
8061 5 tri 4729 4752 4749
8062 5 tri 4691 4703 4716
8063 5 tri 4747 4752 4729
8064 5 tri 4789 4791 4812
8065 5 tri 4792 4771 4789
8066 5 tri 4752 4747 4769
8067 5 tri 4627 4639 4619
8068 5 tri 4742 4726 4749
8069 5 tri 4702 4721 4699
8070 5 tri 4702 4705 4726
8071 5 tri 4596 4619 4605
8072 5 tri 4762 4771 4781
8073 5 tri 4804 4800 4781
8074 5 tri 5226 5212 5163
8075 5 tri 5096 5063 5079
8076 5 tri 4917 4938 4931
8077 5 tri 4843 4856 4836
8078 5 tri 4817 4846 4837
8079 5 tri 4895 4924 4900
8080 5 tri 4895 4900 4880
8081 5 tri 4938 4924 4951
8082 5 tri 5072 5045 5031
8083 5 tri 5066 5078 5037
8084 5 tri 5015 5017 4983
8085 5 tri 5062 5051 5015
8086 5 tri 5217 5234 5180
8087 5 tri 5177 5132 5165
8088 5 tri 5115 5072 5094
8089 5 tri 5072 5051 5094
8090 5 tri 5096 5083 5063
8091 5 tri 5119 5079 5088
8092 5 tri 5029 5018 5046
8093 5 tri 5136 5119 5163
8094 5 tri 5285 5286 5216
8095 5 tri 5285 5216 5235
8096 5 tri 5283 5191 5282
8097 5 tri 5235 5216 5165
8098 5 tri 5280 5206 5279
8099 5 tri 5131 5172 5113
8100 5 tri 5126 5095 5078
8101 5 tri 5159 5172 5219
8102 5 tri 5167 5172 5131
8103 5 tri 5112 5078 5066
8104 5 tri 5121 5169 5168
8105 5 tri 5130 5176 5169
8106 5 tri 5211 5277 5278
8107 5 tri 5267 5268 5222
8108 5 tri 5042 5000 5007
8109 5 tri 5067 5052 5022
8110 5 tri 5192 5164 5147
8111 5 tri 5052 5042 5007
8112 5 tri 4997 4954 4971
8113 5 tri 5267 5194 5266
8114 5 tri 5127 5101 5145
8115 5 tri 5146 5222 5174
8116 5 tri 5268 5202 5222
8117 5 tri 5193 5233 5178
8118 5 tri 5214 5274 5215
8119 5 tri 5232 5273 5214
8120 5 tri 5270 5192 5269
8121 5 tri 5220 5204 5258
8122 5 tri 5223 5250 5188
8123 5 tri 5197 5151 5148
8124 5 tri 5209 5203 5171
8125 5 tri 5023 5048 5004
8126 5 tri 5137 5117 5082
8127 5 tri 5104 5070 5053
8128 5 tri 4941 4973 4978
8129 5 tri 5155 5133 5102
8130 5 tri 5223 5249 5250
8131 5 tri 5039 5053 5011
8132 5 tri 5004 4991 4961
8133 5 tri 5148 5114 5158
8134 5 tri 5104 5118 5070
8135 5 tri 5076 5104 5053
8136 5 tri 5098 5122 5074
8137 5 tri 5171 5118 5151
8138 5 tri 5098 5070 5118
8139 5 tri 5203 5143 5171
8140 5 tri 5101 5135 5145
8141 5 tri 5199 5149 5201
8142 5 tri 4995 4950 4976
8143 5 tri 5074 5033 5048
8144 5 tri 5178 5146 5127
8145 5 tri 5061 5087 5101
8146 5 tri 4897 4909 4863
8147 5 tri 4839 4815 4790
8148 5 tri 4937 4950 4909
8149 5 tri 4813 4838 4797
8150 5 tri 4940 4897 4903
8151 5 tri 4961 4934 4978
8152 5 tri 4984 4949 4991
8153 5 tri 4827 4805 4782
8154 5 tri 4949 4940 4903
8155 5 tri 4756 4735 4784
8156 5 tri 5016 5013 4979
8157 5 tri 4897 4863 4858
8158 5 tri 4806 4773 4756
8159 5 tri 4562 4586 4543
8160 5 tri 4756 4710 4735
8161 5 tri 4573 4544 4532
8162 5 tri 4673 4694 4645
8163 5 tri 4667 4692 4710
8164 5 tri 4625 4581 4588
8165 5 tri 4519 4498 4471
8166 5 tri 4710 4692 4735
8167 5 tri 4667 4626 4652
8168 5 tri 4873 4832 4848
8169 5 tri 4806 4820 4773
8170 5 tri 4920 4873 4893
8171 5 tri 4717 4735 4692
8172 5 tri 4717 4704 4748
8173 5 tri 4733 4719 4759
8174 5 tri 4659 4616 4647
8175 5 tri 4587 4544 4573
8176 5 tri 4647 4680 4693
8177 5 tri 4643 4609 4641
8178 5 tri 4697 4671 4664
8179 5 tri 4680 4643 4671
8180 5 tri 4750 4760 4722
8181 5 tri 4680 4671 4708
8182 5 tri 4744 4759 4719
8183 5 tri 4786 4819 4796
8184 5 tri 4827 4848 4805
8185 5 tri 4750 4722 4708
8186 5 tri 4808 4819 4786
8187 5 tri 4857 4835 4833
8188 5 tri 4956 4952 4916
8189 5 tri 4866 4904 4893
8190 5 tri 4988 4999 4952
8191 5 tri 4883 4875 4838
8192 5 tri 5070 5048 5023
8193 5 tri 4866 4893 4848
8194 5 tri 4996 5032 4988
8195 5 tri 5053 5023 5011
8196 5 tri 5085 5040 5059
8197 5 tri 4854 4851 4824
8198 5 tri 5038 4996 5005
8199 5 tri 5005 4972 5014
8200 5 tri 4925 4958 4943
8201 5 tri 4854 4882 4890
8202 5 tri 4842 4850 4830
8203 5 tri 4685 4700 4711
8204 5 tri 4860 4849 4840
8205 5 tri 4803 4825 4811
8206 5 tri 4761 4783 4763
8207 5 tri 4807 4799 4785
8208 5 tri 4711 4723 4732
8209 5 tri 4780 4803 4787
8210 5 tri 4833 4849 4857
8211 5 tri 4669 4646 4672
8212 5 tri 4700 4678 4688
8213 5 tri 4630 4642 4621
8214 5 tri 4661 4685 4672
8215 5 tri 4669 4638 4646
8216 5 tri 4696 4676 3216
8217 5 tri 4658 4678 4685
8218 5 tri 4678 4658 4668
8219 5 tri 4706 4714 4728
8220 5 tri 4668 4658 4649
8221 5 tri 4745 4753 4754
8222 5 tri 4785 4779 4770
8223 5 tri 4734 4741 4718
8224 5 tri 4753 4770 4754
8225 5 tri 3216 4676 3185
8226 5 tri 3268 3297 4737
8227 5 tri 3351 3380 4801
8228 5 tri 3351 4801 4776
8229 5 tri 4757 4770 4753
8230 5 tri 3490 4887 4862
8231 5 tri 3519 3547 4906
8232 5 tri 5060 5086 5103
8233 5 tri 5069 5110 5091
8234 5 tri 4953 4918 4932
8235 5 tri 4925 4943 4912
8236 5 tri 5058 5028 5054
8237 5 tri 4962 4953 4932
8238 5 tri 4933 4946 4972
8239 5 tri 5002 5028 5025
8240 5 tri 5144 5184 5139
8241 5 tri 5242 5229 5241
8242 5 tri 5182 5231 5185
8243 5 tri 3669 5002 3638
8244 5 tri 4958 4939 4957
8245 5 tri 5103 5144 5110
8246 5 tri 5229 5221 5179
8247 5 tri 5227 5245 5231
8248 5 tri 5221 5243 5190
8249 5 tri 3965 5210 3867
8250 5 tri 3971 4019 4067
8251 5 tri 3969 4021 4049
8252 5 tri 3970 4049 4019
8253 5 tri 4021 4071 4049
8254 5 tri 3969 3968 4021
8255 5 tri 4021 4037 4071
8256 5 tri 4071 4087 4120
8257 5 tri 4088 4029 2494
8258 5 tri 4061 3967 3966
8259 5 tri 4037 3968 3967
8260 5 tri 4029 3966 2443
8261 5 tri 4029 4061 3966
8262 5 tri 4037 4061 4087
8263 5 tri 4037 3967 4061
8264 5 tri 2443 2494 4029
8265 5 tri 4117 4061 4088
8266 5 tri 4164 4182 4200
8267 5 tri 4141 2611 4182
8268 5 tri 4189 4173 4150
8269 5 tri 4117 4088 4141
8270 5 tri 4141 4088 2537
8271 5 tri 4061 4029 4088
8272 5 tri 2611 4141 2575
8273 5 tri 4117 4087 4061
8274 5 tri 4164 4117 4141
8275 5 tri 4164 4150 4117
8276 5 tri 4135 4093 4071
8277 5 tri 4126 4074 4093
8278 5 tri 4173 4135 4120
8279 5 tri 4140 4193 4157
8280 5 tri 4173 4172 4135
8281 5 tri 4212 4243 4201
8282 5 tri 4150 4173 4120
8283 5 tri 4217 4237 4204
8284 5 tri 4087 4150 4120
8285 5 tri 4164 4200 4189
8286 5 tri 4230 4189 4200
8287 5 tri 4217 4173 4189
8288 5 tri 4221 4230 4200
8289 5 tri 4258 4285 4251
8290 5 tri 4212 4204 4237
8291 5 tri 4172 4173 4204
8292 5 tri 4275 4251 4285
8293 5 tri 4237 4217 4251
8294 5 tri 4300 4313 4285
8295 5 tri 4259 4212 4237
8296 5 tri 4285 4308 4275
8297 5 tri 4336 4361 4338
8298 5 tri 4230 4258 4251
8299 5 tri 4245 4268 4277
8300 5 tri 4325 4313 4300
8301 5 tri 4336 4338 4313
8302 5 tri 4325 4310 4334
8303 5 tri 4300 4277 4294
8304 5 tri 4245 4277 4258
8305 5 tri 4294 4310 4300
8306 5 tri 4268 4294 4277
8307 5 tri 4268 2707 2731
8308 5 tri 4221 2646 2676
8309 5 tri 4182 2611 2646
8310 5 tri 4230 4221 4245
8311 5 tri 4200 4182 4221
8312 5 tri 4294 2731 4310
8313 5 tri 2731 2756 4310
8314 5 tri 4221 2676 4245
8315 5 tri 2575 4141 2537
8316 5 tri 4404 2846 2869
8317 5 tri 2779 2801 4356
8318 5 tri 2801 2823 4376
8319 5 tri 4460 4448 2912
8320 5 tri 4428 2869 2890
8321 5 tri 4460 2933 4479
8322 5 tri 4556 4577 4560
8323 5 tri 4598 4577 3078
8324 5 tri 4634 4630 4618
8325 5 tri 3078 3105 4598
8326 5 tri 4560 4545 4541
8327 5 tri 4479 4467 4460
8328 5 tri 4541 4525 4521
8329 5 tri 4507 4485 4505
8330 5 tri 4554 4542 4527
8331 5 tri 4507 4505 4525
8332 5 tri 3003 4537 4521
8333 5 tri 4560 4566 4545
8334 5 tri 4556 4541 4537
8335 5 tri 4556 3026 3053
8336 5 tri 4537 3003 3026
8337 5 tri 3130 4618 3105
8338 5 tri 4611 4593 4598
8339 5 tri 4599 4593 4611
8340 5 tri 4583 4560 4577
8341 5 tri 4598 4618 4611
8342 5 tri 4598 3105 4618
8343 5 tri 4577 4556 3053
8344 5 tri 4560 4541 4556
8345 5 tri 4599 4583 4593
8346 5 tri 4582 4566 4583
8347 5 tri 4583 4566 4560
8348 5 tri 4582 4572 4554
8349 5 tri 4621 4599 4611
8350 5 tri 4597 4620 4592
8351 5 tri 4630 4621 4611
8352 5 tri 4661 4658 4685
8353 5 tri 4599 4617 4597
8354 5 tri 4621 4642 4636
8355 5 tri 4592 4620 4612
8356 5 tri 4661 4642 4658
8357 5 tri 4592 4572 4597
8358 5 tri 4545 4525 4541
8359 5 tri 4582 4597 4572
8360 5 tri 4617 4620 4597
8361 5 tri 4571 4584 4552
8362 5 tri 4508 4507 4527
8363 5 tri 4554 4545 4566
8364 5 tri 4527 4507 4525
8365 5 tri 4582 4554 4566
8366 5 tri 4572 4542 4554
8367 5 tri 4545 4527 4525
8368 5 tri 4485 4467 4487
8369 5 tri 4554 4527 4545
8370 5 tri 4508 4484 4507
8371 5 tri 4542 4518 4527
8372 5 tri 4417 4411 4387
8373 5 tri 4527 4518 4508
8374 5 tri 4531 4559 4551
8375 5 tri 4508 4491 4484
8376 5 tri 4475 4497 4513
8377 5 tri 4491 4465 4484
8378 5 tri 4441 4437 4417
8379 5 tri 4464 4465 4442
8380 5 tri 4469 4488 4458
8381 5 tri 4449 4427 4433
8382 5 tri 4442 4422 4427
8383 5 tri 4465 4464 4484
8384 5 tri 4442 4427 4449
8385 5 tri 4484 4485 4507
8386 5 tri 4484 4464 4485
8387 5 tri 4479 4487 4467
8388 5 tri 4505 4485 4487
8389 5 tri 4502 2956 2976
8390 5 tri 4521 4502 2976
8391 5 tri 4505 4487 4502
8392 5 tri 4449 4448 4467
8393 5 tri 2912 2933 4460
8394 5 tri 2956 4479 2933
8395 5 tri 2956 4502 4479
8396 5 tri 4467 4448 4460
8397 5 tri 4433 4428 4448
8398 5 tri 4448 4449 4433
8399 5 tri 4467 4464 4449
8400 5 tri 4433 4414 4428
8401 5 tri 4405 4379 4385
8402 5 tri 4376 4392 4368
8403 5 tri 4403 4405 4385
8404 5 tri 4392 4404 4414
8405 5 tri 4392 4376 4404
8406 5 tri 4310 4325 4300
8407 5 tri 4334 4356 4348
8408 5 tri 2801 4376 4356
8409 5 tri 2823 2846 4376
8410 5 tri 4376 4368 4356
8411 5 tri 4362 4379 4395
8412 5 tri 4356 4368 4348
8413 5 tri 4385 4379 4361
8414 5 tri 4348 4361 4336
8415 5 tri 4368 4385 4361
8416 5 tri 4392 4385 4368
8417 5 tri 4392 4414 4403
8418 5 tri 4392 4403 4385
8419 5 tri 4414 4427 4403
8420 5 tri 4427 4422 4405
8421 5 tri 4330 4354 4321
8422 5 tri 4405 4422 4395
8423 5 tri 4442 4465 4441
8424 5 tri 4298 4308 4330
8425 5 tri 4308 4313 4338
8426 5 tri 4387 4362 4395
8427 5 tri 4338 4361 4362
8428 5 tri 4108 4115 4156
8429 5 tri 4172 4204 4212
8430 5 tri 4172 4212 4166
8431 5 tri 4237 4275 4259
8432 5 tri 4308 4298 4275
8433 5 tri 4284 4281 4243
8434 5 tri 4275 4298 4259
8435 5 tri 4281 4273 4236
8436 5 tri 4212 4201 4166
8437 5 tri 4236 4193 4201
8438 5 tri 4201 4243 4236
8439 5 tri 4212 4259 4243
8440 5 tri 4028 4058 4084
8441 5 tri 4193 4233 4203
8442 5 tri 4176 4153 4213
8443 5 tri 4203 4233 4226
8444 5 tri 4165 4203 4186
8445 5 tri 4165 4157 4203
8446 5 tri 4255 4226 4263
8447 5 tri 4186 4203 4226
8448 5 tri 4281 4315 4273
8449 5 tri 4278 4320 4305
8450 5 tri 4304 4263 4273
8451 5 tri 4297 4255 4263
8452 5 tri 4321 4281 4284
8453 5 tri 4321 4347 4315
8454 5 tri 4297 4304 4335
8455 5 tri 4437 4411 4417
8456 5 tri 4263 4304 4297
8457 5 tri 4273 4315 4304
8458 5 tri 4297 4335 4328
8459 5 tri 4524 4483 4493
8460 5 tri 4342 4375 4335
8461 5 tri 4342 4347 4372
8462 5 tri 4358 4371 4397
8463 5 tri 4375 4372 4408
8464 5 tri 4342 4372 4375
8465 5 tri 4372 4377 4400
8466 5 tri 4375 4408 4415
8467 5 tri 4434 4411 4437
8468 5 tri 4372 4400 4408
8469 5 tri 4372 4347 4377
8470 5 tri 4304 4315 4342
8471 5 tri 4281 4321 4315
8472 5 tri 4387 4377 4354
8473 5 tri 4411 4400 4377
8474 5 tri 4259 4298 4284
8475 5 tri 4308 4338 4330
8476 5 tri 4298 4330 4321
8477 5 tri 4338 4362 4330
8478 5 tri 4347 4354 4377
8479 5 tri 4330 4362 4354
8480 5 tri 4362 4387 4354
8481 5 tri 4395 4417 4387
8482 5 tri 4442 4441 4422
8483 5 tri 4465 4491 4469
8484 5 tri 4422 4417 4395
8485 5 tri 4422 4441 4417
8486 5 tri 4469 4458 4437
8487 5 tri 4458 4434 4437
8488 5 tri 4518 4531 4501
8489 5 tri 4518 4542 4531
8490 5 tri 4497 4466 4488
8491 5 tri 4434 4400 4411
8492 5 tri 4465 4469 4441
8493 5 tri 4491 4501 4469
8494 5 tri 4501 4531 4517
8495 5 tri 4542 4572 4559
8496 5 tri 4551 4559 4580
8497 5 tri 4531 4542 4559
8498 5 tri 4580 4592 4612
8499 5 tri 4559 4572 4592
8500 5 tri 4571 4580 4600
8501 5 tri 4559 4592 4580
8502 5 tri 4580 4612 4600
8503 5 tri 4638 4660 4632
8504 5 tri 4469 4501 4488
8505 5 tri 4491 4518 4501
8506 5 tri 4571 4534 4551
8507 5 tri 4534 4517 4551
8508 5 tri 4580 4571 4551
8509 5 tri 4552 4574 4536
8510 5 tri 4610 4584 4600
8511 5 tri 4573 4604 4616
8512 5 tri 4600 4584 4571
8513 5 tri 4610 4641 4609
8514 5 tri 4564 4536 4574
8515 5 tri 4584 4610 4609
8516 5 tri 4671 4643 4641
8517 5 tri 4604 4574 4609
8518 5 tri 4604 4564 4574
8519 5 tri 4513 4534 4552
8520 5 tri 4574 4552 4584
8521 5 tri 4536 4513 4552
8522 5 tri 4493 4475 4513
8523 5 tri 4466 4438 4434
8524 5 tri 4517 4497 4488
8525 5 tri 4475 4454 4438
8526 5 tri 4551 4517 4531
8527 5 tri 4534 4497 4517
8528 5 tri 4488 4466 4458
8529 5 tri 4408 4400 4434
8530 5 tri 4475 4466 4497
8531 5 tri 4434 4458 4466
8532 5 tri 4415 4438 4454
8533 5 tri 4408 4434 4438
8534 5 tri 4466 4475 4438
8535 5 tri 4513 4536 4493
8536 5 tri 4397 4371 4415
8537 5 tri 4328 4335 4371
8538 5 tri 4345 4305 4320
8539 5 tri 4328 4371 4358
8540 5 tri 4358 4397 4382
8541 5 tri 4415 4454 4439
8542 5 tri 4444 4419 4459
8543 5 tri 4419 4397 4439
8544 5 tri 4489 4471 4444
8545 5 tri 4382 4397 4419
8546 5 tri 4493 4483 4454
8547 5 tri 4459 4419 4439
8548 5 tri 4483 4439 4454
8549 5 tri 4454 4475 4493
8550 5 tri 4504 4483 4532
8551 5 tri 4493 4536 4524
8552 5 tri 4524 4564 4532
8553 5 tri 4524 4536 4564
8554 5 tri 4564 4573 4532
8555 5 tri 4616 4587 4573
8556 5 tri 4677 4717 4692
8557 5 tri 4608 4565 4587
8558 5 tri 4532 4483 4524
8559 5 tri 4459 4439 4483
8560 5 tri 4565 4519 4544
8561 5 tri 4459 4483 4504
8562 5 tri 4544 4489 4504
8563 5 tri 4471 4429 4444
8564 5 tri 4587 4565 4544
8565 5 tri 4625 4626 4667
8566 5 tri 4616 4631 4587
8567 5 tri 4652 4626 4608
8568 5 tri 4588 4547 4565
8569 5 tri 4523 4478 4490
8570 5 tri 4608 4588 4565
8571 5 tri 4581 4601 4557
8572 5 tri 4533 4490 4498
8573 5 tri 4490 4452 4498
8574 5 tri 4544 4519 4489
8575 5 tri 4565 4547 4519
8576 5 tri 4410 4452 4446
8577 5 tri 4412 4429 4452
8578 5 tri 4452 4429 4471
8579 5 tri 4383 4343 4366
8580 5 tri 4489 4444 4459
8581 5 tri 4402 4366 4382
8582 5 tri 4326 4366 4343
8583 5 tri 4382 4419 4402
8584 5 tri 4429 4402 4444
8585 5 tri 4429 4383 4402
8586 5 tri 4383 4350 4343
8587 5 tri 4291 4262 4253
8588 5 tri 4412 4383 4429
8589 5 tri 4412 4373 4383
8590 5 tri 4350 4311 4343
8591 5 tri 4350 4373 4329
8592 5 tri 4234 4227 4264
8593 5 tri 4274 4291 4253
8594 5 tri 4234 4274 4253
8595 5 tri 4311 4291 4274
8596 5 tri 4250 4264 4227
8597 5 tri 4287 4326 4302
8598 5 tri 4228 4266 4250
8599 5 tri 4326 4343 4302
8600 5 tri 4264 4302 4274
8601 5 tri 4264 4287 4302
8602 5 tri 4266 4305 4287
8603 5 tri 4238 4206 4246
8604 5 tri 4266 4278 4305
8605 5 tri 4328 4358 4320
8606 5 tri 4366 4345 4382
8607 5 tri 4326 4305 4345
8608 5 tri 4328 4289 4297
8609 5 tri 4213 4186 4226
8610 5 tri 4297 4289 4255
8611 5 tri 4328 4320 4289
8612 5 tri 4250 4266 4287
8613 5 tri 4238 4278 4266
8614 5 tri 4246 4278 4238
8615 5 tri 4289 4320 4278
8616 5 tri 4184 4194 4228
8617 5 tri 4238 4266 4228
8618 5 tri 4246 4213 4255
8619 5 tri 4206 4155 4176
8620 5 tri 4213 4246 4206
8621 5 tri 4255 4289 4246
8622 5 tri 4206 4176 4213
8623 5 tri 4155 4104 4128
8624 5 tri 4210 4169 4184
8625 5 tri 4155 4206 4194
8626 5 tri 4179 4169 4210
8627 5 tri 4091 4083 4039
8628 5 tri 4210 4184 4228
8629 5 tri 4136 4130 4091
8630 5 tri 4152 4179 4198
8631 5 tri 4234 4264 4274
8632 5 tri 4210 4227 4179
8633 5 tri 4210 4250 4227
8634 5 tri 4264 4250 4287
8635 5 tri 4210 4228 4250
8636 5 tri 4183 4198 4234
8637 5 tri 4179 4227 4198
8638 5 tri 4183 4234 4214
8639 5 tri 4198 4227 4234
8640 5 tri 4090 4078 4127
8641 5 tri 4152 4133 4179
8642 5 tri 4162 4183 4214
8643 5 tri 4162 4127 4183
8644 5 tri 4125 4127 4162
8645 5 tri 4111 4152 4127
8646 5 tri 4081 4133 4111
8647 5 tri 4081 4083 4133
8648 5 tri 4127 4152 4183
8649 5 tri 4111 4133 4152
8650 5 tri 4053 3988 4031
8651 5 tri 4066 3986 4024
8652 5 tri 4098 4053 4090
8653 5 tri 4031 3988 3987
8654 5 tri 4098 4125 4146
8655 5 tri 4090 4127 4125
8656 5 tri 4125 4098 4090
8657 5 tri 3987 4016 4031
8658 5 tri 4090 4031 4078
8659 5 tri 4090 4053 4031
8660 5 tri 4030 3985 3984
8661 5 tri 4024 3986 3985
8662 5 tri 4066 4111 4078
8663 5 tri 4031 4016 4078
8664 5 tri 3987 3986 4016
8665 5 tri 3986 4066 4016
8666 5 tri 4024 4081 4066
8667 5 tri 4110 4104 4155
8668 5 tri 4148 4184 4136
8669 5 tri 3982 4043 3983
8670 5 tri 3985 4030 4024
8671 5 tri 4083 4130 4133
8672 5 tri 3979 4035 4026
8673 5 tri 3980 4060 3981
8674 5 tri 3979 4026 3980
8675 5 tri 4128 4153 4176
8676 5 tri 3981 4060 4052
8677 5 tri 4110 4155 4148
8678 5 tri 4104 4110 4060
8679 5 tri 4043 4052 4096
8680 5 tri 4039 4083 4030
8681 5 tri 4039 4043 4091
8682 5 tri 4136 4091 4096
8683 5 tri 4130 4083 4091
8684 5 tri 4169 4136 4184
8685 5 tri 4169 4130 4136
8686 5 tri 4096 4148 4136
8687 5 tri 4155 4194 4148
8688 5 tri 4026 4104 4060
8689 5 tri 4070 4035 4101
8690 5 tri 4096 4110 4148
8691 5 tri 4096 4052 4110
8692 5 tri 4128 4101 4153
8693 5 tri 4101 4106 4153
8694 5 tri 4070 4101 4128
8695 5 tri 4022 3977 3976
8696 5 tri 4155 4128 4176
8697 5 tri 4104 4070 4128
8698 5 tri 3977 4022 4059
8699 5 tri 4137 4153 4106
8700 5 tri 4064 4054 4109
8701 5 tri 4157 4165 4116
8702 5 tri 4077 4137 4106
8703 5 tri 4165 4186 4137
8704 5 tri 4109 4140 4157
8705 5 tri 4157 4116 4109
8706 5 tri 4074 4126 4115
8707 5 tri 4093 4135 4126
8708 5 tri 4201 4156 4166
8709 5 tri 4201 4193 4156
8710 5 tri 4019 4074 4067
8711 5 tri 4156 4140 4108
8712 5 tri 4166 4115 4126
8713 5 tri 4166 4156 4115
8714 5 tri 3973 4058 4028
8715 5 tri 4108 4140 4084
8716 5 tri 4054 4028 4084
8717 5 tri 4084 4140 4109
8718 5 tri 3974 4054 3975
8719 5 tri 4077 4106 4059
8720 5 tri 4108 4058 4067
8721 5 tri 4108 4084 4058
8722 5 tri 4067 4074 4115
8723 5 tri 4019 4049 4074
8724 5 tri 3970 4019 3971
8725 5 tri 4067 3972 3971
8726 5 tri 4109 4054 4084
8727 5 tri 3974 3973 4028
8728 5 tri 3975 4054 4064
8729 5 tri 3974 4028 4054
8730 5 tri 4064 3976 3975
8731 5 tri 4059 4106 4101
8732 5 tri 4064 4022 3976
8733 5 tri 4064 4116 4077
8734 5 tri 4064 4077 4022
8735 5 tri 4116 4137 4077
8736 5 tri 3979 3978 4035
8737 5 tri 4022 4077 4059
8738 5 tri 4026 4070 4104
8739 5 tri 4026 4035 4070
8740 5 tri 4059 4035 3978
8741 5 tri 3977 4059 3978
8742 5 tri 3995 4056 4048
8743 5 tri 4050 4092 4068
8744 5 tri 4050 4068 4018
8745 5 tri 3991 4050 3992
8746 5 tri 4041 3989 4053
8747 5 tri 4041 4069 4017
8748 5 tri 4017 4069 4050
8749 5 tri 4119 4068 4092
8750 5 tri 4119 4134 4085
8751 5 tri 3990 4017 3991
8752 5 tri 3990 4041 4017
8753 5 tri 3992 4018 3993
8754 5 tri 3992 4050 4018
8755 5 tri 4118 4098 4146
8756 5 tri 4041 4053 4098
8757 5 tri 4146 4181 4192
8758 5 tri 4146 4125 4181
8759 5 tri 4146 4192 4161
8760 5 tri 4181 4214 4223
8761 5 tri 4134 4119 4168
8762 5 tri 4161 4192 4190
8763 5 tri 4222 4190 4192
8764 5 tri 4219 4249 4202
8765 5 tri 4143 4119 4092
8766 5 tri 4168 4160 4134
8767 5 tri 4118 4143 4092
8768 5 tri 4161 4190 4143
8769 5 tri 4124 4089 4138
8770 5 tri 4085 4068 4119
8771 5 tri 4107 4134 4160
8772 5 tri 4107 4085 4134
8773 5 tri 4190 4219 4168
8774 5 tri 4257 4252 4216
8775 5 tri 4232 4257 4216
8776 5 tri 4216 4170 4195
8777 5 tri 4202 4232 4195
8778 5 tri 4215 4207 4171
8779 5 tri 4175 4124 4170
8780 5 tri 4036 3998 3997
8781 5 tri 4124 4138 4170
8782 5 tri 4107 4160 4138
8783 5 tri 4138 4089 4107
8784 5 tri 4080 4086 4036
8785 5 tri 4107 4048 4056
8786 5 tri 4089 4042 4048
8787 5 tri 4056 4085 4107
8788 5 tri 4056 3994 4027
8789 5 tri 4027 4085 4056
8790 5 tri 3993 4027 3994
8791 5 tri 3993 4018 4027
8792 5 tri 4056 3995 3994
8793 5 tri 4048 3996 3995
8794 5 tri 4124 4080 4089
8795 5 tri 4036 3997 4042
8796 5 tri 4123 4113 4073
8797 5 tri 4065 4001 4000
8798 5 tri 4080 4036 4042
8799 5 tri 4040 3999 3998
8800 5 tri 4113 4065 4073
8801 5 tri 4051 4001 4065
8802 5 tri 4086 4040 4036
8803 5 tri 4086 4073 4040
8804 5 tri 4163 4113 4123
8805 5 tri 4065 4020 4073
8806 5 tri 4089 4080 4042
8807 5 tri 4124 4131 4080
8808 5 tri 4216 4175 4170
8809 5 tri 4123 4086 4131
8810 5 tri 4171 4175 4215
8811 5 tri 4131 4124 4175
8812 5 tri 4248 4207 4215
8813 5 tri 4199 4163 4207
8814 5 tri 4216 4215 4175
8815 5 tri 4252 4293 4248
8816 5 tri 4154 4139 4103
8817 5 tri 4079 4114 4062
8818 5 tri 4163 4171 4207
8819 5 tri 4123 4131 4171
8820 5 tri 4103 4113 4154
8821 5 tri 4167 4218 4185
8822 5 tri 4163 4154 4113
8823 5 tri 4167 4185 4142
8824 5 tri 4199 4154 4163
8825 5 tri 4199 4187 4154
8826 5 tri 4235 4191 4225
8827 5 tri 4167 4114 4139
8828 5 tri 4260 4218 4265
8829 5 tri 4225 4185 4218
8830 5 tri 4149 4142 4185
8831 5 tri 4149 4099 4142
8832 5 tri 4187 4167 4139
8833 5 tri 4187 4218 4167
8834 5 tri 4057 4005 4033
8835 5 tri 4004 4003 4062
8836 5 tri 4051 4103 4079
8837 5 tri 4139 4114 4079
8838 5 tri 4023 4051 4079
8839 5 tri 4065 4113 4103
8840 5 tri 4103 4051 4065
8841 5 tri 4023 4002 4051
8842 5 tri 4006 4005 4057
8843 5 tri 4099 4082 4142
8844 5 tri 4004 4033 4005
8845 5 tri 4062 4082 4033
8846 5 tri 4062 4033 4004
8847 5 tri 4002 4023 4003
8848 5 tri 4023 4062 4003
8849 5 tri 4001 4051 4002
8850 5 tri 4020 4000 3999
8851 5 tri 4020 4065 4000
8852 5 tri 4038 4014 4013
8853 5 tri 4075 4025 4038
8854 5 tri 4063 4015 4025
8855 5 tri 4075 4094 4132
8856 5 tri 4038 4045 4094
8857 5 tri 4063 4075 4102
8858 5 tri 4196 4180 4159
8859 5 tri 4196 4211 4180
8860 5 tri 4144 4121 4159
8861 5 tri 4144 4102 4121
8862 5 tri 4151 4129 4178
8863 5 tri 4177 4205 4220
8864 5 tri 4209 4174 4188
8865 5 tri 4196 4159 4174
8866 5 tri 4177 4188 4145
8867 5 tri 4224 4244 4209
8868 5 tri 4229 4209 4244
8869 5 tri 4196 4174 4209
8870 5 tri 4072 4034 4100
8871 5 tri 4276 4256 4247
8872 5 tri 4241 4205 4208
8873 5 tri 4097 4145 4094
8874 5 tri 4151 4205 4177
8875 5 tri 4178 4208 4205
8876 5 tri 4072 4100 4122
8877 5 tri 4122 4151 4177
8878 5 tri 4044 4076 4100
8879 5 tri 4112 4055 4095
8880 5 tri 4129 4151 4100
8881 5 tri 4177 4145 4122
8882 5 tri 4205 4151 4178
8883 5 tri 4122 4100 4151
8884 5 tri 4145 4097 4122
8885 5 tri 4094 4045 4097
8886 5 tri 4034 4011 4010
8887 5 tri 4032 4012 4011
8888 5 tri 4045 4012 4032
8889 5 tri 4045 4013 4012
8890 5 tri 4044 4034 4010
8891 5 tri 4011 4034 4032
8892 5 tri 4010 4009 4044
8893 5 tri 4076 4044 4047
8894 5 tri 4100 4034 4044
8895 5 tri 4097 4072 4122
8896 5 tri 4032 4034 4072
8897 5 tri 4055 4112 4047
8898 5 tri 4129 4100 4076
8899 5 tri 4009 4008 4047
8900 5 tri 4008 4055 4047
8901 5 tri 4105 4057 4099
8902 5 tri 4055 4007 4046
8903 5 tri 4008 4007 4055
8904 5 tri 4006 4057 4046
8905 5 tri 4033 4082 4099
8906 5 tri 4147 4095 4105
8907 5 tri 4055 4046 4095
8908 5 tri 4105 4099 4149
8909 5 tri 4057 4033 4099
8910 5 tri 4147 4105 4149
8911 5 tri 4095 4046 4105
8912 5 tri 4076 4112 4129
8913 5 tri 4076 4047 4112
8914 5 tri 4178 4158 4208
8915 5 tri 4112 4095 4147
8916 5 tri 4242 4197 4235
8917 5 tri 4158 4147 4197
8918 5 tri 4191 4147 4149
8919 5 tri 4158 4112 4147
8920 5 tri 4225 4191 4185
8921 5 tri 4197 4147 4191
8922 5 tri 4177 4220 4188
8923 5 tri 4247 4241 4286
8924 5 tri 4224 4256 4244
8925 5 tri 4303 4324 4301
8926 5 tri 4239 4229 4254
8927 5 tri 4270 4303 4280
8928 5 tri 4290 4303 4270
8929 5 tri 4363 4332 4351
8930 5 tri 4290 4318 4303
8931 5 tri 4290 4276 4306
8932 5 tri 4303 4331 4324
8933 5 tri 4318 4332 4344
8934 5 tri 4331 4344 4355
8935 5 tri 4331 4318 4344
8936 5 tri 4332 4363 4344
8937 5 tri 4381 4370 4396
8938 5 tri 4388 4406 4401
8939 5 tri 4421 4409 4401
8940 5 tri 4398 4390 4409
8941 5 tri 4384 4355 4367
8942 5 tri 4436 4430 4447
8943 5 tri 4409 4421 4430
8944 5 tri 4398 4378 4390
8945 5 tri 4360 4346 4369
8946 5 tri 4388 4384 4367
8947 5 tri 4401 4390 4384
8948 5 tri 4295 4301 4317
8949 5 tri 4430 4418 4409
8950 5 tri 4409 4418 4398
8951 5 tri 4430 4436 4418
8952 5 tri 4360 4369 4378
8953 5 tri 4280 4295 4267
8954 5 tri 4303 4301 4280
8955 5 tri 4324 4317 4301
8956 5 tri 4270 4254 4244
8957 5 tri 4239 4211 4229
8958 5 tri 4244 4254 4229
8959 5 tri 4280 4267 4254
8960 5 tri 4596 4605 4585
8961 5 tri 4589 4596 4579
8962 5 tri 4619 4624 4605
8963 5 tri 4606 4619 4596
8964 5 tri 4606 4627 4619
8965 5 tri 4553 4549 4528
8966 5 tri 4549 4558 4539
8967 5 tri 4539 4558 4550
8968 5 tri 4539 4550 4530
8969 5 tri 4455 4463 4474
8970 5 tri 4509 4511 4528
8971 5 tri 4500 4520 4512
8972 5 tri 4520 4530 4512
8973 5 tri 4486 4500 4481
8974 5 tri 4481 4474 4463
8975 5 tri 4530 4520 4539
8976 5 tri 4512 4494 4500
8977 5 tri 4474 4481 4494
8978 5 tri 4486 4492 4509
8979 5 tri 4440 4447 4430
8980 5 tri 4463 4455 4447
8981 5 tri 4486 4481 4462
8982 5 tri 4500 4494 4481
8983 5 tri 4424 4440 4421
8984 5 tri 4462 4463 4447
8985 5 tri 4468 4462 4440
8986 5 tri 4468 4492 4486
8987 5 tri 4468 4486 4462
8988 5 tri 4492 4511 4509
8989 5 tri 4526 4509 4528
8990 5 tri 4500 4486 4509
8991 5 tri 4569 4549 4553
8992 5 tri 4539 4520 4526
8993 5 tri 4539 4526 4549
8994 5 tri 4520 4509 4526
8995 5 tri 4585 4568 4579
8996 5 tri 4568 4550 4558
8997 5 tri 4585 4579 4596
8998 5 tri 4558 4549 4569
8999 5 tri 4615 4606 4589
9000 5 tri 4639 4651 4657
9001 5 tri 4576 4569 4553
9002 5 tri 4579 4558 4569
9003 5 tri 4594 4615 4589
9004 5 tri 4606 4596 4589
9005 5 tri 4576 4594 4589
9006 5 tri 4594 4623 4615
9007 5 tri 4529 4553 4528
9008 5 tri 4555 4576 4553
9009 5 tri 4569 4576 4589
9010 5 tri 4629 4603 4622
9011 5 tri 4555 4578 4576
9012 5 tri 4546 4516 4535
9013 5 tri 4578 4594 4576
9014 5 tri 4622 4591 4595
9015 5 tri 4578 4603 4594
9016 5 tri 4629 4656 4650
9017 5 tri 4594 4603 4623
9018 5 tri 4578 4591 4603
9019 5 tri 4628 4622 4595
9020 5 tri 4570 4575 4602
9021 5 tri 4629 4622 4654
9022 5 tri 4603 4591 4622
9023 5 tri 4595 4570 4602
9024 5 tri 4540 4538 4570
9025 5 tri 4637 4628 4602
9026 5 tri 4591 4563 4567
9027 5 tri 4578 4563 4591
9028 5 tri 4535 4510 4540
9029 5 tri 4591 4567 4595
9030 5 tri 4563 4535 4567
9031 5 tri 4514 4510 4482
9032 5 tri 4451 4480 4456
9033 5 tri 4496 4482 4457
9034 5 tri 4480 4499 4516
9035 5 tri 4540 4514 4538
9036 5 tri 4540 4510 4514
9037 5 tri 4477 4443 4450
9038 5 tri 4374 4339 4357
9039 5 tri 4425 4457 4420
9040 5 tri 4482 4450 4457
9041 5 tri 4482 4477 4450
9042 5 tri 4426 4407 4396
9043 5 tri 4510 4477 4482
9044 5 tri 4510 4499 4477
9045 5 tri 4477 4472 4443
9046 5 tri 4406 4431 4424
9047 5 tri 4443 4472 4451
9048 5 tri 4477 4499 4472
9049 5 tri 4546 4535 4563
9050 5 tri 4516 4499 4535
9051 5 tri 4492 4503 4511
9052 5 tri 4480 4472 4499
9053 5 tri 4578 4546 4563
9054 5 tri 4555 4529 4546
9055 5 tri 4401 4424 4421
9056 5 tri 4456 4468 4445
9057 5 tri 4476 4480 4503
9058 5 tri 4476 4456 4480
9059 5 tri 4431 4445 4424
9060 5 tri 4445 4440 4424
9061 5 tri 4374 4396 4370
9062 5 tri 4451 4456 4431
9063 5 tri 4426 4431 4407
9064 5 tri 4456 4445 4431
9065 5 tri 4370 4381 4351
9066 5 tri 4406 4424 4401
9067 5 tri 4363 4388 4367
9068 5 tri 4381 4407 4406
9069 5 tri 4381 4406 4388
9070 5 tri 4407 4431 4406
9071 5 tri 4381 4363 4351
9072 5 tri 4381 4388 4363
9073 5 tri 4188 4220 4224
9074 5 tri 4205 4241 4247
9075 5 tri 4270 4256 4290
9076 5 tri 4224 4220 4256
9077 5 tri 4276 4247 4286
9078 5 tri 4256 4220 4247
9079 5 tri 4306 4276 4286
9080 5 tri 4290 4256 4276
9081 5 tri 4319 4306 4286
9082 5 tri 4332 4318 4306
9083 5 tri 4340 4319 4309
9084 5 tri 4351 4332 4319
9085 5 tri 4316 4339 4309
9086 5 tri 4370 4351 4340
9087 5 tri 4309 4271 4282
9088 5 tri 4208 4197 4242
9089 5 tri 4282 4271 4242
9090 5 tri 4309 4286 4271
9091 5 tri 4269 4260 4299
9092 5 tri 4225 4218 4260
9093 5 tri 4316 4269 4299
9094 5 tri 4282 4235 4269
9095 5 tri 4341 4357 4316
9096 5 tri 4374 4340 4339
9097 5 tri 4389 4425 4386
9098 5 tri 4420 4450 4416
9099 5 tri 4316 4357 4339
9100 5 tri 4420 4457 4450
9101 5 tri 4393 4374 4357
9102 5 tri 4396 4407 4381
9103 5 tri 4341 4386 4357
9104 5 tri 4450 4443 4416
9105 5 tri 4393 4416 4374
9106 5 tri 4426 4451 4431
9107 5 tri 4416 4426 4396
9108 5 tri 4443 4451 4426
9109 5 tri 4426 4416 4443
9110 5 tri 4396 4374 4416
9111 5 tri 4357 4386 4393
9112 5 tri 4391 4352 4365
9113 5 tri 4393 4386 4420
9114 5 tri 4349 4352 4389
9115 5 tri 4420 4386 4425
9116 5 tri 4386 4341 4349
9117 5 tri 4380 4413 4365
9118 5 tri 4432 4461 4425
9119 5 tri 4394 4380 4353
9120 5 tri 4394 4423 4380
9121 5 tri 4312 4323 4352
9122 5 tri 4293 4333 4323
9123 5 tri 4386 4349 4389
9124 5 tri 4341 4299 4307
9125 5 tri 4349 4312 4352
9126 5 tri 4272 4283 4312
9127 5 tri 4218 4231 4265
9128 5 tri 4187 4199 4231
9129 5 tri 4349 4307 4312
9130 5 tri 4299 4265 4307
9131 5 tri 4231 4240 4272
9132 5 tri 4199 4207 4240
9133 5 tri 4252 4248 4215
9134 5 tri 4283 4240 4248
9135 5 tri 4195 4232 4216
9136 5 tri 4279 4314 4292
9137 5 tri 4333 4292 4314
9138 5 tri 4293 4252 4292
9139 5 tri 4262 4296 4261
9140 5 tri 4322 4279 4288
9141 5 tri 4168 4219 4202
9142 5 tri 4279 4257 4232
9143 5 tri 4232 4249 4279
9144 5 tri 4232 4202 4249
9145 5 tri 4222 4219 4190
9146 5 tri 4261 4249 4219
9147 5 tri 4223 4222 4192
9148 5 tri 4261 4219 4222
9149 5 tri 4181 4223 4192
9150 5 tri 4253 4262 4223
9151 5 tri 4350 4329 4311
9152 5 tri 4288 4327 4322
9153 5 tri 4311 4329 4291
9154 5 tri 4364 4359 4327
9155 5 tri 4291 4296 4262
9156 5 tri 4327 4359 4322
9157 5 tri 4329 4327 4296
9158 5 tri 4329 4373 4364
9159 5 tri 4333 4353 4380
9160 5 tri 4314 4322 4353
9161 5 tri 4364 4399 4359
9162 5 tri 4423 4453 4413
9163 5 tri 4329 4364 4327
9164 5 tri 4373 4412 4410
9165 5 tri 4373 4410 4364
9166 5 tri 4446 4478 4435
9167 5 tri 4364 4410 4399
9168 5 tri 4412 4452 4410
9169 5 tri 4490 4478 4446
9170 5 tri 4523 4515 4478
9171 5 tri 4452 4490 4446
9172 5 tri 4498 4547 4533
9173 5 tri 4473 4453 4495
9174 5 tri 4561 4522 4543
9175 5 tri 4470 4495 4453
9176 5 tri 4557 4523 4533
9177 5 tri 4399 4435 4394
9178 5 tri 4470 4453 4423
9179 5 tri 4470 4435 4478
9180 5 tri 4423 4394 4435
9181 5 tri 4365 4413 4391
9182 5 tri 4380 4423 4413
9183 5 tri 4391 4432 4389
9184 5 tri 4391 4413 4432
9185 5 tri 4389 4432 4425
9186 5 tri 4413 4453 4432
9187 5 tri 4425 4461 4457
9188 5 tri 4432 4453 4473
9189 5 tri 4482 4496 4514
9190 5 tri 4461 4473 4506
9191 5 tri 4522 4506 4473
9192 5 tri 4461 4432 4473
9193 5 tri 4496 4506 4538
9194 5 tri 4473 4495 4522
9195 5 tri 4561 4548 4522
9196 5 tri 4495 4470 4515
9197 5 tri 4543 4522 4495
9198 5 tri 4561 4586 4607
9199 5 tri 4538 4548 4575
9200 5 tri 4506 4522 4548
9201 5 tri 4548 4590 4575
9202 5 tri 4635 4679 4648
9203 5 tri 4602 4613 4637
9204 5 tri 4575 4590 4613
9205 5 tri 4586 4561 4543
9206 5 tri 4590 4548 4561
9207 5 tri 4561 4607 4590
9208 5 tri 4586 4614 4633
9209 5 tri 4667 4673 4625
9210 5 tri 4766 4743 4790
9211 5 tri 4495 4515 4543
9212 5 tri 4470 4478 4515
9213 5 tri 4586 4562 4614
9214 5 tri 4515 4523 4562
9215 5 tri 4588 4581 4547
9216 5 tri 4523 4490 4533
9217 5 tri 4547 4581 4533
9218 5 tri 4601 4562 4557
9219 5 tri 4533 4581 4557
9220 5 tri 4588 4626 4625
9221 5 tri 4645 4601 4625
9222 5 tri 4614 4562 4601
9223 5 tri 4673 4645 4625
9224 5 tri 4601 4581 4625
9225 5 tri 4601 4645 4614
9226 5 tri 4766 4790 4815
9227 5 tri 4710 4673 4667
9228 5 tri 4806 4756 4784
9229 5 tri 4767 4724 4727
9230 5 tri 4725 4673 4710
9231 5 tri 4712 4689 4665
9232 5 tri 4633 4614 4665
9233 5 tri 4665 4694 4712
9234 5 tri 4665 4645 4694
9235 5 tri 4689 4686 4653
9236 5 tri 4607 4586 4633
9237 5 tri 4607 4635 4590
9238 5 tri 4607 4633 4653
9239 5 tri 4613 4648 4637
9240 5 tri 4613 4635 4648
9241 5 tri 4739 4727 4689
9242 5 tri 4679 4635 4686
9243 5 tri 4751 4724 4767
9244 5 tri 4679 4686 4724
9245 5 tri 4635 4653 4686
9246 5 tri 4635 4607 4653
9247 5 tri 4633 4689 4653
9248 5 tri 4727 4777 4767
9249 5 tri 4712 4739 4689
9250 5 tri 4712 4743 4766
9251 5 tri 4777 4727 4739
9252 5 tri 4724 4686 4727
9253 5 tri 4802 4774 4814
9254 5 tri 4751 4767 4793
9255 5 tri 4874 4859 4826
9256 5 tri 4834 4793 4809
9257 5 tri 4855 4834 4876
9258 5 tri 4855 4814 4834
9259 5 tri 4844 4795 4815
9260 5 tri 4777 4739 4795
9261 5 tri 4923 4967 4959
9262 5 tri 4809 4777 4826
9263 5 tri 4861 4815 4839
9264 5 tri 4795 4766 4815
9265 5 tri 4694 4743 4712
9266 5 tri 4725 4710 4756
9267 5 tri 4739 4766 4795
9268 5 tri 4739 4712 4766
9269 5 tri 4694 4725 4743
9270 5 tri 4694 4673 4725
9271 5 tri 4743 4773 4790
9272 5 tri 4725 4756 4773
9273 5 tri 4863 4839 4820
9274 5 tri 4790 4773 4820
9275 5 tri 4858 4863 4820
9276 5 tri 4907 4935 4891
9277 5 tri 4940 4937 4897
9278 5 tri 4884 4839 4863
9279 5 tri 4884 4861 4839
9280 5 tri 4891 4874 4844
9281 5 tri 4909 4884 4863
9282 5 tri 4927 4907 4884
9283 5 tri 4907 4891 4861
9284 5 tri 4911 4923 4959
9285 5 tri 4884 4907 4861
9286 5 tri 4927 4954 4907
9287 5 tri 4979 4976 4937
9288 5 tri 4927 4884 4909
9289 5 tri 5020 5041 4997
9290 5 tri 4927 4909 4950
9291 5 tri 5044 5013 5016
9292 5 tri 5056 5100 5071
9293 5 tri 5013 5030 4995
9294 5 tri 4954 4982 4935
9295 5 tri 5020 4997 4971
9296 5 tri 5041 5022 4997
9297 5 tri 5030 5020 4995
9298 5 tri 5071 5041 5020
9299 5 tri 4982 4954 4997
9300 5 tri 4935 4907 4954
9301 5 tri 4995 4971 4950
9302 5 tri 4995 5020 4971
9303 5 tri 4968 4948 4993
9304 5 tri 4859 4834 4809
9305 5 tri 4989 4968 5010
9306 5 tri 4876 4898 4855
9307 5 tri 5042 5036 5000
9308 5 tri 4993 4959 5000
9309 5 tri 5010 4968 4993
9310 5 tri 4947 4922 4898
9311 5 tri 5035 5010 4993
9312 5 tri 5055 5034 5010
9313 5 tri 4876 4926 4898
9314 5 tri 4968 4989 4947
9315 5 tri 4993 4948 4959
9316 5 tri 4968 4926 4948
9317 5 tri 4859 4911 4899
9318 5 tri 4948 4926 4899
9319 5 tri 4859 4874 4911
9320 5 tri 4891 4935 4923
9321 5 tri 4874 4923 4911
9322 5 tri 4935 4967 4923
9323 5 tri 4891 4844 4861
9324 5 tri 4826 4795 4844
9325 5 tri 4844 4874 4826
9326 5 tri 4891 4923 4874
9327 5 tri 4876 4859 4899
9328 5 tri 4809 4826 4859
9329 5 tri 4859 4876 4834
9330 5 tri 4899 4926 4876
9331 5 tri 4881 4865 4841
9332 5 tri 4852 4821 4828
9333 5 tri 4794 4798 4821
9334 5 tri 4798 4802 4828
9335 5 tri 4828 4865 4852
9336 5 tri 4841 4855 4881
9337 5 tri 4881 4902 4865
9338 5 tri 4910 4929 4895
9339 5 tri 4898 4881 4855
9340 5 tri 4898 4922 4881
9341 5 tri 4944 4902 4922
9342 5 tri 4889 4865 4902
9343 5 tri 4968 4947 4926
9344 5 tri 4989 4965 4947
9345 5 tri 5008 4965 4989
9346 5 tri 4944 4986 4969
9347 5 tri 5010 5034 4989
9348 5 tri 4960 4983 4994
9349 5 tri 5008 4986 4965
9350 5 tri 5037 5078 5050
9351 5 tri 5008 5037 4986
9352 5 tri 5050 5062 5015
9353 5 tri 4965 4944 4922
9354 5 tri 4986 5012 4969
9355 5 tri 4944 4969 4928
9356 5 tri 4969 5015 4983
9357 5 tri 4981 4951 4960
9358 5 tri 4910 4895 4877
9359 5 tri 4994 4983 5017
9360 5 tri 4945 4969 4983
9361 5 tri 5037 5050 5012
9362 5 tri 5051 5017 5015
9363 5 tri 5019 4992 5003
9364 5 tri 4960 4945 4983
9365 5 tri 5046 5018 5045
9366 5 tri 4981 4994 5009
9367 5 tri 4951 4929 4960
9368 5 tri 4981 4960 4994
9369 5 tri 4951 4924 4929
9370 5 tri 4960 4929 4945
9371 5 tri 4924 4895 4929
9372 5 tri 4889 4877 4852
9373 5 tri 4889 4910 4877
9374 5 tri 4928 4910 4889
9375 5 tri 4928 4945 4910
9376 5 tri 4852 4846 4821
9377 5 tri 4769 4771 4752
9378 5 tri 4821 4846 4817
9379 5 tri 4852 4877 4846
9380 5 tri 4867 4837 4846
9381 5 tri 4864 4878 4856
9382 5 tri 4853 4867 4880
9383 5 tri 4846 4877 4867
9384 5 tri 4837 4812 4817
9385 5 tri 4810 4792 4789
9386 5 tri 4791 4769 4764
9387 5 tri 4789 4771 4769
9388 5 tri 4791 4789 4769
9389 5 tri 4812 4810 4789
9390 5 tri 4716 4730 4747
9391 5 tri 4738 4768 4730
9392 5 tri 4716 4747 4729
9393 5 tri 4730 4764 4747
9394 5 tri 4768 4794 4764
9395 5 tri 4817 4812 4791
9396 5 tri 4798 4794 4768
9397 5 tri 4821 4817 4794
9398 5 tri 4821 4798 4828
9399 5 tri 4772 4738 4746
9400 5 tri 4772 4802 4798
9401 5 tri 4814 4841 4802
9402 5 tri 4774 4751 4793
9403 5 tri 4731 4707 4751
9404 5 tri 4751 4774 4731
9405 5 tri 4793 4814 4774
9406 5 tri 4774 4746 4731
9407 5 tri 4774 4802 4772
9408 5 tri 4768 4772 4798
9409 5 tri 4746 4774 4772
9410 5 tri 4681 4709 4703
9411 5 tri 4738 4730 4709
9412 5 tri 4628 4663 4654
9413 5 tri 4701 4746 4713
9414 5 tri 4684 4713 4709
9415 5 tri 4684 4701 4713
9416 5 tri 4654 4663 4684
9417 5 tri 4637 4648 4675
9418 5 tri 4679 4675 4648
9419 5 tri 4707 4701 4675
9420 5 tri 4663 4628 4637
9421 5 tri 4654 4622 4628
9422 5 tri 4656 4681 4674
9423 5 tri 4684 4709 4681
9424 5 tri 4681 4656 4654
9425 5 tri 4623 4603 4629
9426 5 tri 4650 4656 4674
9427 5 tri 4629 4654 4656
9428 5 tri 4681 4703 4674
9429 5 tri 4709 4730 4703
9430 5 tri 4666 4691 4687
9431 5 tri 4674 4703 4691
9432 5 tri 4705 4716 4729
9433 5 tri 4703 4730 4716
9434 5 tri 4691 4666 4674
9435 5 tri 4640 4623 4650
9436 5 tri 4670 4651 4666
9437 5 tri 4640 4650 4666
9438 5 tri 4666 4651 4640
9439 5 tri 4666 4687 4670
9440 5 tri 4615 4627 4606
9441 5 tri 4615 4640 4627
9442 5 tri 4624 4639 4644
9443 5 tri 4627 4651 4639
9444 5 tri 4705 4702 4687
9445 5 tri 4644 4639 4657
9446 5 tri 4683 4670 4687
9447 5 tri 4657 4651 4670
9448 5 tri 4657 4670 4683
9449 5 tri 4691 4705 4687
9450 5 tri 4691 4716 4705
9451 5 tri 4755 4742 4762
9452 5 tri 4726 4729 4749
9453 5 tri 4804 4781 4792
9454 5 tri 4781 4771 4792
9455 5 tri 4810 4804 4792
9456 5 tri 4762 4749 4771
9457 5 tri 4823 4804 4810
9458 5 tri 4683 4687 4702
9459 5 tri 4778 4762 4781
9460 5 tri 4755 4736 4742
9461 5 tri 4736 4721 4742
9462 5 tri 4762 4742 4749
9463 5 tri 4736 4720 4721
9464 5 tri 4781 4800 4778
9465 5 tri 4778 4755 4762
9466 5 tri 4721 4726 4742
9467 5 tri 4702 4699 4683
9468 5 tri 4699 4721 4720
9469 5 tri 4702 4726 4721
9470 5 tri 4683 4662 4657
9471 5 tri 4683 4682 4662
9472 5 tri 4683 4699 4682
9473 5 tri 4908 4917 4931
9474 5 tri 4990 4975 4964
9475 5 tri 5029 5047 5019
9476 5 tri 5063 5047 5029
9477 5 tri 5009 5018 4990
9478 5 tri 4990 5003 4975
9479 5 tri 5029 5019 5003
9480 5 tri 4885 4908 4896
9481 5 tri 4931 4955 4942
9482 5 tri 4975 4992 4966
9483 5 tri 4843 4864 4856
9484 5 tri 4804 4818 4800
9485 5 tri 4804 4823 4818
9486 5 tri 4836 4818 4823
9487 5 tri 4810 4831 4823
9488 5 tri 4847 4853 4870
9489 5 tri 4847 4864 4843
9490 5 tri 4892 4900 4917
9491 5 tri 4870 4892 4885
9492 5 tri 4908 4919 4896
9493 5 tri 4892 4908 4885
9494 5 tri 4900 4924 4917
9495 5 tri 4864 4870 4885
9496 5 tri 4880 4900 4892
9497 5 tri 4831 4847 4823
9498 5 tri 4843 4836 4823
9499 5 tri 4823 4847 4843
9500 5 tri 4870 4880 4892
9501 5 tri 4812 4831 4810
9502 5 tri 4837 4853 4831
9503 5 tri 4831 4853 4847
9504 5 tri 4837 4867 4853
9505 5 tri 4847 4870 4864
9506 5 tri 4853 4880 4870
9507 5 tri 4938 4917 4924
9508 5 tri 4908 4892 4917
9509 5 tri 4981 4964 4951
9510 5 tri 4931 4919 4908
9511 5 tri 4955 4931 4938
9512 5 tri 4942 4919 4931
9513 5 tri 4964 4975 4955
9514 5 tri 4966 4942 4955
9515 5 tri 4955 4975 4966
9516 5 tri 4955 4938 4964
9517 5 tri 5045 5018 5009
9518 5 tri 5029 5003 5018
9519 5 tri 4951 4964 4938
9520 5 tri 4990 5018 5003
9521 5 tri 4981 4990 4964
9522 5 tri 4981 5009 4990
9523 5 tri 5012 5050 5015
9524 5 tri 5180 5126 5162
9525 5 tri 5078 5095 5050
9526 5 tri 5106 5142 5161
9527 5 tri 5106 5094 5062
9528 5 tri 5115 5132 5088
9529 5 tri 5050 5095 5062
9530 5 tri 5161 5191 5224
9531 5 tri 5062 5095 5106
9532 5 tri 5078 5112 5126
9533 5 tri 5162 5126 5112
9534 5 tri 5180 5234 5191
9535 5 tri 5191 5142 5180
9536 5 tri 5106 5095 5142
9537 5 tri 5126 5180 5142
9538 5 tri 5162 5217 5180
9539 5 tri 5206 5217 5162
9540 5 tri 5281 5234 5217
9541 5 tri 5282 5191 5234
9542 5 tri 5161 5138 5106
9543 5 tri 5284 5285 5235
9544 5 tri 5138 5094 5106
9545 5 tri 5235 5165 5187
9546 5 tri 5165 5132 5115
9547 5 tri 5191 5161 5142
9548 5 tri 5224 5187 5161
9549 5 tri 5187 5165 5138
9550 5 tri 5216 5226 5177
9551 5 tri 5161 5187 5138
9552 5 tri 5224 5235 5187
9553 5 tri 5163 5132 5177
9554 5 tri 5288 5212 5287
9555 5 tri 5183 5136 5163
9556 5 tri 5183 5163 5212
9557 5 tri 5119 5132 5163
9558 5 tri 5216 5177 5165
9559 5 tri 5226 5163 5177
9560 5 tri 5153 5116 5136
9561 5 tri 5119 5088 5132
9562 5 tri 5079 5063 5046
9563 5 tri 5138 5115 5094
9564 5 tri 5138 5165 5115
9565 5 tri 4994 5031 5009
9566 5 tri 5017 5051 5031
9567 5 tri 5088 5072 5115
9568 5 tri 5088 5045 5072
9569 5 tri 5088 5079 5045
9570 5 tri 5063 5029 5046
9571 5 tri 5045 5079 5046
9572 5 tri 5119 5136 5096
9573 5 tri 5116 5083 5096
9574 5 tri 5047 5063 5083
9575 5 tri 5119 5096 5079
9576 5 tri 5136 5116 5096
9577 5 tri 5136 5183 5153
9578 5 tri 5195 5153 5183
9579 5 tri 5183 5212 5238
9580 5 tri 5289 5238 5288
9581 5 tri 5195 5183 5238
9582 5 tri 5195 5238 5289
9583 5 tri 5216 5286 5226
9584 5 tri 5286 5287 5226
9585 5 tri 5288 5238 5212
9586 5 tri 5212 5226 5287
9587 5 tri 5224 5284 5235
9588 5 tri 5224 5283 5284
9589 5 tri 5280 5281 5217
9590 5 tri 5283 5224 5191
9591 5 tri 5211 5213 5277
9592 5 tri 5213 5157 5205
9593 5 tri 5278 5219 5211
9594 5 tri 5213 5276 5277
9595 5 tri 5219 5278 5279
9596 5 tri 5206 5280 5217
9597 5 tri 5172 5167 5211
9598 5 tri 5167 5213 5211
9599 5 tri 5167 5157 5213
9600 5 tri 5213 5205 5276
9601 5 tri 5219 5172 5211
9602 5 tri 5215 5169 5214
9603 5 tri 5206 5159 5219
9604 5 tri 5159 5113 5172
9605 5 tri 5159 5206 5162
9606 5 tri 5219 5279 5206
9607 5 tri 5112 5159 5162
9608 5 tri 5131 5084 5108
9609 5 tri 4986 5037 5012
9610 5 tri 5034 5055 5084
9611 5 tri 5008 5066 5037
9612 5 tri 5084 5113 5066
9613 5 tri 5008 5034 5066
9614 5 tri 5008 4989 5034
9615 5 tri 5112 5113 5159
9616 5 tri 5112 5066 5113
9617 5 tri 5084 5131 5113
9618 5 tri 5108 5167 5131
9619 5 tri 5108 5157 5167
9620 5 tri 5108 5077 5120
9621 5 tri 5108 5120 5157
9622 5 tri 5075 5121 5120
9623 5 tri 5000 5036 4993
9624 5 tri 5075 5077 5035
9625 5 tri 5055 5077 5108
9626 5 tri 5055 5035 5077
9627 5 tri 5075 5036 5081
9628 5 tri 5035 4993 5036
9629 5 tri 5022 5052 5007
9630 5 tri 5081 5036 5042
9631 5 tri 5081 5121 5075
9632 5 tri 5081 5130 5121
9633 5 tri 5121 5130 5169
9634 5 tri 5092 5042 5052
9635 5 tri 5214 5176 5232
9636 5 tri 5130 5141 5176
9637 5 tri 5215 5168 5169
9638 5 tri 5157 5120 5168
9639 5 tri 5276 5205 5275
9640 5 tri 5157 5168 5205
9641 5 tri 5176 5214 5169
9642 5 tri 5273 5274 5214
9643 5 tri 5275 5215 5274
9644 5 tri 5205 5168 5215
9645 5 tri 5273 5232 5272
9646 5 tri 5189 5141 5164
9647 5 tri 5176 5141 5189
9648 5 tri 5270 5225 5192
9649 5 tri 5272 5232 5189
9650 5 tri 5269 5192 5202
9651 5 tri 5225 5164 5192
9652 5 tri 5271 5225 5270
9653 5 tri 5099 5123 5164
9654 5 tri 5174 5222 5202
9655 5 tri 5225 5189 5164
9656 5 tri 5130 5081 5092
9657 5 tri 5271 5189 5225
9658 5 tri 5232 5176 5189
9659 5 tri 5123 5147 5164
9660 5 tri 5141 5130 5092
9661 5 tri 5041 5067 5022
9662 5 tri 5092 5081 5042
9663 5 tri 5099 5092 5052
9664 5 tri 5099 5141 5092
9665 5 tri 5071 5097 5041
9666 5 tri 5099 5052 5067
9667 5 tri 5041 5097 5067
9668 5 tri 5071 5124 5097
9669 5 tri 5067 5123 5099
9670 5 tri 5097 5147 5123
9671 5 tri 5097 5124 5147
9672 5 tri 5127 5080 5101
9673 5 tri 5147 5174 5202
9674 5 tri 5124 5100 5146
9675 5 tri 5071 5100 5124
9676 5 tri 5056 5020 5030
9677 5 tri 5194 5146 5178
9678 5 tri 5174 5124 5146
9679 5 tri 4976 5013 4995
9680 5 tri 5061 5101 5080
9681 5 tri 5020 5056 5071
9682 5 tri 5030 5061 5080
9683 5 tri 5056 5080 5100
9684 5 tri 5056 5030 5080
9685 5 tri 5193 5178 5145
9686 5 tri 5100 5080 5127
9687 5 tri 5181 5208 5236
9688 5 tri 5145 5178 5127
9689 5 tri 5233 5194 5178
9690 5 tri 5266 5194 5233
9691 5 tri 5222 5146 5194
9692 5 tri 5193 5265 5233
9693 5 tri 5267 5222 5194
9694 5 tri 5236 5264 5193
9695 5 tri 5233 5265 5266
9696 5 tri 5189 5271 5272
9697 5 tri 5261 5262 5200
9698 5 tri 5260 5201 5259
9699 5 tri 5154 5188 5137
9700 5 tri 5158 5114 5117
9701 5 tri 5228 5188 5251
9702 5 tri 5251 5188 5250
9703 5 tri 5248 5249 5230
9704 5 tri 5185 5237 5196
9705 5 tri 5245 5227 5244
9706 5 tri 5248 5196 5247
9707 5 tri 5247 5237 5246
9708 5 tri 5139 5110 5144
9709 5 tri 5246 5231 5245
9710 5 tri 5155 5230 5186
9711 5 tri 5155 5196 5230
9712 5 tri 5231 5237 5185
9713 5 tri 5231 5246 5237
9714 5 tri 5155 5186 5133
9715 5 tri 5230 5249 5223
9716 5 tri 5190 5184 5144
9717 5 tri 5239 5244 5227
9718 5 tri 5182 5227 5231
9719 5 tri 5184 5239 5227
9720 5 tri 5227 5182 5184
9721 5 tri 5093 5102 5059
9722 5 tri 5134 5182 5185
9723 5 tri 5139 5184 5182
9724 5 tri 5182 5134 5139
9725 5 tri 5140 5102 5093
9726 5 tri 5185 5140 5134
9727 5 tri 5185 5155 5140
9728 5 tri 5154 5137 5107
9729 5 tri 5188 5228 5173
9730 5 tri 5133 5154 5107
9731 5 tri 5186 5223 5154
9732 5 tri 5154 5223 5188
9733 5 tri 5186 5230 5223
9734 5 tri 5188 5173 5137
9735 5 tri 5148 5198 5197
9736 5 tri 5228 5207 5173
9737 5 tri 5228 5252 5207
9738 5 tri 5082 5117 5073
9739 5 tri 5137 5173 5117
9740 5 tri 5207 5158 5173
9741 5 tri 5207 5198 5158
9742 5 tri 5198 5148 5158
9743 5 tri 5151 5104 5148
9744 5 tri 5171 5143 5118
9745 5 tri 5175 5122 5143
9746 5 tri 5197 5209 5151
9747 5 tri 5203 5204 5143
9748 5 tri 5258 5204 5257
9749 5 tri 5175 5143 5204
9750 5 tri 5254 5197 5198
9751 5 tri 5255 5256 5209
9752 5 tri 5151 5209 5171
9753 5 tri 5257 5204 5203
9754 5 tri 5207 5253 5198
9755 5 tri 5207 5252 5253
9756 5 tri 5197 5254 5255
9757 5 tri 5198 5253 5254
9758 5 tri 5257 5203 5256
9759 5 tri 5259 5220 5258
9760 5 tri 5255 5209 5197
9761 5 tri 5256 5203 5209
9762 5 tri 5201 5156 5220
9763 5 tri 5156 5122 5175
9764 5 tri 5220 5259 5201
9765 5 tri 5236 5263 5264
9766 5 tri 5208 5200 5262
9767 5 tri 5199 5260 5261
9768 5 tri 5160 5208 5181
9769 5 tri 5262 5263 5208
9770 5 tri 5145 5181 5193
9771 5 tri 5208 5263 5236
9772 5 tri 5160 5181 5135
9773 5 tri 5236 5193 5181
9774 5 tri 5152 5149 5199
9775 5 tri 5201 5260 5199
9776 5 tri 5105 5064 5065
9777 5 tri 5199 5261 5200
9778 5 tri 5200 5152 5199
9779 5 tri 5152 5111 5105
9780 5 tri 5220 5156 5175
9781 5 tri 5149 5105 5109
9782 5 tri 5208 5160 5200
9783 5 tri 5160 5135 5111
9784 5 tri 5087 5111 5135
9785 5 tri 5152 5200 5160
9786 5 tri 5160 5111 5152
9787 5 tri 5087 5044 5064
9788 5 tri 5061 5044 5087
9789 5 tri 5013 4976 4979
9790 5 tri 5087 5064 5111
9791 5 tri 5027 4991 5033
9792 5 tri 5074 5065 5033
9793 5 tri 5064 5016 5027
9794 5 tri 5152 5105 5149
9795 5 tri 5111 5064 5105
9796 5 tri 5156 5109 5122
9797 5 tri 5105 5065 5109
9798 5 tri 5143 5098 5118
9799 5 tri 5122 5109 5074
9800 5 tri 5114 5076 5073
9801 5 tri 5114 5148 5104
9802 5 tri 5114 5104 5076
9803 5 tri 5151 5118 5104
9804 5 tri 5082 5032 5038
9805 5 tri 5073 5076 5039
9806 5 tri 5073 5039 5032
9807 5 tri 5076 5053 5039
9808 5 tri 5004 5048 5033
9809 5 tri 5070 5098 5048
9810 5 tri 5098 5074 5048
9811 5 tri 5109 5065 5074
9812 5 tri 5011 5023 4978
9813 5 tri 5053 5070 5023
9814 5 tri 4996 4988 4956
9815 5 tri 5032 4999 4988
9816 5 tri 4973 5011 4978
9817 5 tri 4999 5039 5011
9818 5 tri 4916 4952 4913
9819 5 tri 4999 5011 4973
9820 5 tri 4934 4941 4978
9821 5 tri 4952 4999 4973
9822 5 tri 5004 4961 4978
9823 5 tri 4866 4848 4827
9824 5 tri 4913 4941 4904
9825 5 tri 4952 4973 4941
9826 5 tri 4934 4961 4920
9827 5 tri 4984 4940 4949
9828 5 tri 4949 4961 4991
9829 5 tri 4949 4920 4961
9830 5 tri 5023 5004 4978
9831 5 tri 5033 4991 5004
9832 5 tri 5061 5013 5044
9833 5 tri 5061 5030 5013
9834 5 tri 5064 5027 5065
9835 5 tri 5016 4984 5027
9836 5 tri 4979 4937 4940
9837 5 tri 4976 4950 4937
9838 5 tri 4984 4979 4940
9839 5 tri 4984 5016 4979
9840 5 tri 4903 4897 4858
9841 5 tri 4937 4909 4897
9842 5 tri 4920 4893 4934
9843 5 tri 4920 4903 4873
9844 5 tri 4873 4903 4858
9845 5 tri 4920 4949 4903
9846 5 tri 4832 4873 4858
9847 5 tri 4848 4893 4873
9848 5 tri 4832 4806 4784
9849 5 tri 4858 4820 4806
9850 5 tri 4806 4832 4858
9851 5 tri 4784 4765 4805
9852 5 tri 4748 4765 4717
9853 5 tri 4805 4832 4784
9854 5 tri 4631 4652 4608
9855 5 tri 4631 4677 4652
9856 5 tri 4735 4717 4765
9857 5 tri 4692 4652 4677
9858 5 tri 4587 4631 4608
9859 5 tri 4616 4659 4631
9860 5 tri 4659 4677 4631
9861 5 tri 4704 4717 4677
9862 5 tri 4740 4748 4704
9863 5 tri 4827 4788 4829
9864 5 tri 4832 4805 4848
9865 5 tri 4765 4748 4782
9866 5 tri 4788 4782 4740
9867 5 tri 4805 4765 4782
9868 5 tri 4693 4659 4647
9869 5 tri 4704 4677 4659
9870 5 tri 4693 4740 4704
9871 5 tri 4760 4788 4740
9872 5 tri 4659 4693 4704
9873 5 tri 4680 4708 4722
9874 5 tri 4693 4722 4740
9875 5 tri 4693 4680 4722
9876 5 tri 4788 4760 4797
9877 5 tri 4740 4722 4760
9878 5 tri 4838 4829 4797
9879 5 tri 4838 4875 4829
9880 5 tri 4797 4829 4788
9881 5 tri 4913 4952 4941
9882 5 tri 4788 4827 4782
9883 5 tri 4913 4875 4916
9884 5 tri 4829 4868 4827
9885 5 tri 4904 4934 4893
9886 5 tri 4827 4868 4866
9887 5 tri 4829 4875 4868
9888 5 tri 4868 4904 4866
9889 5 tri 4941 4934 4904
9890 5 tri 4868 4913 4904
9891 5 tri 4868 4875 4913
9892 5 tri 4838 4851 4883
9893 5 tri 4956 4988 4952
9894 5 tri 4819 4845 4824
9895 5 tri 4883 4916 4875
9896 5 tri 4838 4813 4851
9897 5 tri 4786 4759 4763
9898 5 tri 4869 4882 4845
9899 5 tri 4985 4970 5006
9900 5 tri 4813 4775 4796
9901 5 tri 4824 4813 4796
9902 5 tri 4796 4775 4759
9903 5 tri 4797 4760 4750
9904 5 tri 4775 4813 4797
9905 5 tri 4824 4851 4813
9906 5 tri 4697 4733 4708
9907 5 tri 4775 4797 4750
9908 5 tri 4647 4643 4680
9909 5 tri 4647 4604 4643
9910 5 tri 4775 4733 4759
9911 5 tri 4750 4708 4733
9912 5 tri 4664 4632 4660
9913 5 tri 4610 4600 4632
9914 5 tri 4690 4664 4660
9915 5 tri 4671 4641 4664
9916 5 tri 4669 4690 4660
9917 5 tri 4715 4744 4719
9918 5 tri 4690 4697 4664
9919 5 tri 4719 4733 4697
9920 5 tri 4690 4715 4719
9921 5 tri 4786 4783 4808
9922 5 tri 4620 4638 4612
9923 5 tri 4672 4685 4698
9924 5 tri 4669 4695 4690
9925 5 tri 4718 4741 4715
9926 5 tri 4620 4646 4638
9927 5 tri 4620 4617 4636
9928 5 tri 4695 4669 4672
9929 5 tri 4660 4638 4669
9930 5 tri 4718 4695 4698
9931 5 tri 4715 4690 4695
9932 5 tri 4715 4741 4744
9933 5 tri 4779 4754 4770
9934 5 tri 4780 4761 4758
9935 5 tri 4787 4783 4761
9936 5 tri 4741 4763 4744
9937 5 tri 4741 4761 4763
9938 5 tri 4759 4786 4796
9939 5 tri 4763 4783 4786
9940 5 tri 4869 4845 4835
9941 5 tri 4854 4824 4845
9942 5 tri 4888 4869 4857
9943 5 tri 4918 4953 4936
9944 5 tri 4787 4811 4783
9945 5 tri 4835 4845 4819
9946 5 tri 4811 4833 4835
9947 5 tri 4857 4869 4835
9948 5 tri 4849 4872 4857
9949 5 tri 4918 4936 4905
9950 5 tri 4901 4932 4918
9951 5 tri 4953 4970 4936
9952 5 tri 4987 4998 5026
9953 5 tri 4972 4963 4933
9954 5 tri 4915 4905 4936
9955 5 tri 4905 4888 4918
9956 5 tri 4890 4882 4915
9957 5 tri 4936 4970 4946
9958 5 tri 4845 4882 4854
9959 5 tri 4869 4888 4905
9960 5 tri 4946 4915 4936
9961 5 tri 4882 4869 4905
9962 5 tri 4916 4883 4921
9963 5 tri 4882 4905 4915
9964 5 tri 4890 4883 4851
9965 5 tri 4921 4963 4956
9966 5 tri 4854 4890 4851
9967 5 tri 4933 4963 4921
9968 5 tri 4890 4921 4883
9969 5 tri 4890 4915 4933
9970 5 tri 4921 4956 4916
9971 5 tri 4963 4996 4956
9972 5 tri 4890 4933 4921
9973 5 tri 4915 4946 4933
9974 5 tri 4985 4972 4946
9975 5 tri 5014 5040 5005
9976 5 tri 4985 5014 4972
9977 5 tri 5059 5102 5085
9978 5 tri 5005 4996 4963
9979 5 tri 5005 5040 5038
9980 5 tri 5068 5038 5040
9981 5 tri 4963 4972 5005
9982 5 tri 5082 5038 5068
9983 5 tri 5032 4996 5038
9984 5 tri 5032 5082 5073
9985 5 tri 5068 5107 5082
9986 5 tri 5021 5059 5014
9987 5 tri 5093 5134 5140
9988 5 tri 5133 5085 5102
9989 5 tri 5068 5040 5085
9990 5 tri 5021 5057 5059
9991 5 tri 5091 5110 5139
9992 5 tri 4970 4985 4946
9993 5 tri 5021 5014 4985
9994 5 tri 5059 5057 5093
9995 5 tri 5021 4985 5006
9996 5 tri 4953 4987 4970
9997 5 tri 5043 5057 5021
9998 5 tri 5026 5024 5060
9999 5 tri 5069 5091 5043
10000 5 tri 5006 4987 5026
10001 5 tri 5060 5049 5086
10002 5 tri 5134 5091 5139
10003 5 tri 5057 5043 5091
10004 5 tri 4943 4932 4912
10005 5 tri 4943 4962 4932
10006 5 tri 4912 4901 4886
10007 5 tri 4888 4857 4872
10008 5 tri 4888 4901 4918
10009 5 tri 4914 4894 4906
10010 5 tri 4872 4886 4901
10011 5 tri 4872 4849 4860
10012 5 tri 4901 4912 4932
10013 5 tri 4886 4894 4912
10014 5 tri 4958 4925 4939
10015 5 tri 4912 4894 4925
10016 5 tri 4930 4914 4906
10017 5 tri 4925 4894 4914
10018 5 tri 4894 4887 4906
10019 5 tri 4860 4886 4872
10020 5 tri 4958 4957 4977
10021 5 tri 4887 4894 4879
10022 5 tri 3461 3490 4862
10023 5 tri 4887 4871 4862
10024 5 tri 4879 4860 4850
10025 5 tri 4887 4879 4871
10026 5 tri 4894 4886 4879
10027 5 tri 4871 4850 4862
10028 5 tri 4871 4879 4850
10029 5 tri 4850 4842 4862
10030 5 tri 4850 4840 4830
10031 5 tri 4842 3461 4862
10032 5 tri 3404 4801 3380
10033 5 tri 4825 4840 4849
10034 5 tri 4842 4822 3434
10035 5 tri 4822 4807 4801
10036 5 tri 4816 4825 4803
10037 5 tri 4822 4830 4807
10038 5 tri 4822 4842 4830
10039 5 tri 4776 4785 4770
10040 5 tri 4807 4830 4816
10041 5 tri 4807 4816 4799
10042 5 tri 4830 4840 4816
10043 5 tri 4850 4860 4840
10044 5 tri 4879 4886 4860
10045 5 tri 4811 4825 4833
10046 5 tri 4816 4840 4825
10047 5 tri 4808 4811 4835
10048 5 tri 4825 4849 4833
10049 5 tri 4780 4779 4803
10050 5 tri 4799 4816 4803
10051 5 tri 4783 4811 4808
10052 5 tri 4787 4803 4811
10053 5 tri 4741 4734 4761
10054 5 tri 4732 4745 4754
10055 5 tri 4803 4779 4799
10056 5 tri 4758 4754 4779
10057 5 tri 4761 4780 4787
10058 5 tri 4758 4779 4780
10059 5 tri 4728 4714 4737
10060 5 tri 4757 3326 3351
10061 5 tri 4734 4732 4758
10062 5 tri 4734 4718 4711
10063 5 tri 4761 4734 4758
10064 5 tri 4718 4698 4711
10065 5 tri 4695 4672 4698
10066 5 tri 4646 4636 4661
10067 5 tri 4620 4636 4646
10068 5 tri 4617 4621 4636
10069 5 tri 4646 4661 4672
10070 5 tri 4636 4642 4661
10071 5 tri 4634 4649 4630
10072 5 tri 4655 3185 4676
10073 5 tri 4678 4700 4685
10074 5 tri 4723 4745 4732
10075 5 tri 4685 4711 4698
10076 5 tri 4700 4723 4711
10077 5 tri 4688 4706 4700
10078 5 tri 4714 3241 3268
10079 5 tri 4700 4706 4723
10080 5 tri 4696 3241 4714
10081 5 tri 3130 4634 4618
10082 5 tri 3160 4655 4634
10083 5 tri 4678 4668 4688
10084 5 tri 4649 4655 4668
10085 5 tri 4649 4634 4655
10086 5 tri 4668 4676 4688
10087 5 tri 4668 4655 4676
10088 5 tri 4688 4696 4706
10089 5 tri 4688 4676 4696
10090 5 tri 4737 4714 3268
10091 5 tri 4706 4696 4714
10092 5 tri 3326 4737 3297
10093 5 tri 4753 4728 4737
10094 5 tri 4723 4728 4745
10095 5 tri 4723 4706 4728
10096 5 tri 4728 4753 4745
10097 5 tri 4737 3326 4757
10098 5 tri 3351 4776 4757
10099 5 tri 4785 4799 4779
10100 5 tri 4801 4785 4776
10101 5 tri 4801 4807 4785
10102 5 tri 4770 4757 4776
10103 5 tri 4753 4737 4757
10104 5 tri 3160 3185 4655
10105 5 tri 3434 4822 3404
10106 5 tri 4887 3519 4906
10107 5 tri 5129 5103 5086
10108 5 tri 5089 3744 3777
10109 5 tri 5054 3705 3744
10110 5 tri 5054 5028 3705
10111 5 tri 4930 4957 4939
10112 5 tri 3607 4980 4957
10113 5 tri 5001 5002 5025
10114 5 tri 4980 3638 5002
10115 5 tri 3669 5028 5002
10116 5 tri 3669 3705 5028
10117 5 tri 5058 5025 5028
10118 5 tri 5001 4977 5002
10119 5 tri 4980 4977 4957
10120 5 tri 4974 4943 4958
10121 5 tri 4958 4977 4974
10122 5 tri 4980 5002 4977
10123 5 tri 4953 4962 4987
10124 5 tri 4998 5001 5024
10125 5 tri 4974 4962 4943
10126 5 tri 4974 4998 4962
10127 5 tri 4970 4987 5006
10128 5 tri 4962 4998 4987
10129 5 tri 5043 5026 5069
10130 5 tri 4998 4974 5001
10131 5 tri 5006 5026 5043
10132 5 tri 4998 5024 5026
10133 5 tri 5024 5001 5025
10134 5 tri 4974 4977 5001
10135 5 tri 5103 5069 5060
10136 5 tri 5024 5025 5049
10137 5 tri 5058 5090 5049
10138 5 tri 5128 5125 5170
10139 5 tri 5026 5060 5069
10140 5 tri 5024 5049 5060
10141 5 tri 5069 5103 5110
10142 5 tri 5210 5218 5166
10143 5 tri 5103 5150 5144
10144 5 tri 5166 3818 3867
10145 5 tri 5184 5190 5239
10146 5 tri 5103 5129 5150
10147 5 tri 5086 5090 5129
10148 5 tri 5150 5179 5221
10149 5 tri 5150 5129 5179
10150 5 tri 5129 5170 5179
10151 5 tri 5125 5090 5089
10152 5 tri 5125 5128 5090
10153 5 tri 5086 5049 5090
10154 5 tri 5129 5128 5170
10155 5 tri 5129 5090 5128
10156 5 tri 5025 5058 5049
10157 5 tri 5054 5089 5058
10158 5 tri 5125 5089 3777
10159 5 tri 5090 5058 5089
10160 5 tri 3818 5125 3777
10161 5 tri 3818 5166 5125
10162 5 tri 5210 5166 3867
10163 5 tri 5170 5125 5166
10164 5 tri 5218 5170 5166
10165 5 tri 5240 5218 5210
10166 5 tri 3965 5240 5210
10167 5 tri 5218 5241 5229
10168 5 tri 5242 5243 5221
10169 5 tri 5179 5170 5218
10170 5 tri 5240 5241 5218
10171 5 tri 5218 5229 5179
10172 5 tri 5239 5190 5243
10173 5 tri 5190 5150 5221
10174 5 tri 5229 5242 5221
10175 5 tri 5239 5243 5244
10176 6 tri 6043 6099 6080
10177 6 tri 1809 5399 1810
10178 6 tri 5391 5410 5373
10179 6 tri 6076 6039 6063
10180 6 tri 5883 5934 5913
10181 6 tri 6290 6263 6301
10182 6 tri 5834 5807 5852
10183 6 tri 6757 6787 6788
10184 6 tri 6469 6488 6507
10185 6 tri 5661 5642 5624
10186 6 tri 5717 5737 5759
10187 6 tri 6246 6236 6222
10188 6 tri 5345 5389 5393
10189 6 tri 5748 5804 5770
10190 6 tri 5608 5582 5624
10191 6 tri 5307 5310 5353
10192 6 tri 5313 5351 5306
10193 6 tri 5440 5446 5410
10194 6 tri 5591 5613 5556
10195 6 tri 5872 5870 5833
10196 6 tri 5554 5531 5502
10197 6 tri 5772 5739 5763
10198 6 tri 1823 1820 5559
10199 6 tri 5431 5405 5458
10200 6 tri 5710 5755 5741
10201 6 tri 5900 5920 5873
10202 6 tri 5640 5644 5603
10203 6 tri 5901 5935 5908
10204 6 tri 6024 6063 6039
10205 6 tri 5979 6001 5970
10206 6 tri 6288 6279 6267
10207 6 tri 6279 6269 6255
10208 6 tri 6708 6761 6720
10209 6 tri 6091 6061 6090
10210 6 tri 872 6231 6251
10211 6 tri 6597 6615 6574
10212 6 tri 6432 6445 6422
10213 6 tri 6752 6813 6754
10214 6 tri 6418 6438 6394
10215 6 tri 6046 6068 6081
10216 6 tri 6294 6281 6312
10217 6 tri 6211 6231 881
10218 6 tri 5846 5832 5809
10219 6 tri 6009 6007 5969
10220 6 tri 6537 6511 6503
10221 6 tri 6612 6659 6623
10222 6 tri 6424 6422 6445
10223 6 tri 6482 6520 6479
10224 6 tri 5379 5323 5322
10225 6 tri 5304 5307 5356
10226 6 tri 5537 5507 5523
10227 6 tri 5521 5516 5550
10228 6 tri 5921 5893 5909
10229 6 tri 5661 5701 5683
10230 6 tri 5758 5751 5782
10231 6 tri 5770 5714 5748
10232 6 tri 5681 5661 5643
10233 6 tri 5480 5503 5447
10234 6 tri 5480 5447 5436
10235 6 tri 5651 5621 5595
10236 6 tri 5343 5401 5350
10237 6 tri 5598 5617 1828
10238 6 tri 5526 5506 5552
10239 6 tri 5858 5823 5873
10240 6 tri 5906 5911 5952
10241 6 tri 5757 5773 5800
10242 6 tri 6239 6252 6287
10243 6 tri 5913 5885 5859
10244 6 tri 6049 6098 6099
10245 6 tri 5866 5835 5867
10246 6 tri 6296 6259 6244
10247 6 tri 5688 1831 1834
10248 6 tri 5911 5942 5952
10249 6 tri 5927 5890 5936
10250 6 tri 1828 5617 1831
10251 6 tri 5422 5371 5413
10252 6 tri 5783 5815 5820
10253 6 tri 1050 5738 1048
10254 6 tri 5674 5646 5693
10255 6 tri 5458 5467 5506
10256 6 tri 5689 5672 5726
10257 6 tri 5794 5778 5818
10258 6 tri 5424 5418 5372
10259 6 tri 5295 5344 5309
10260 6 tri 5509 5536 5500
10261 6 tri 3928 5334 3929
10262 6 tri 5367 5375 5419
10263 6 tri 1812 5517 5493
10264 6 tri 5339 1804 1805
10265 6 tri 5382 5373 5410
10266 6 tri 1805 3942 5291
10267 6 tri 3944 5316 5311
10268 6 tri 5391 1806 1807
10269 6 tri 3955 3954 5333
10270 6 tri 5444 5454 5502
10271 6 tri 5245 5547 5246
10272 6 tri 5454 5423 5464
10273 6 tri 5312 5317 3946
10274 6 tri 5464 5451 5498
10275 6 tri 5380 5354 5331
10276 6 tri 5366 5311 5316
10277 6 tri 5403 5364 5346
10278 6 tri 5518 5498 5556
10279 6 tri 5896 5882 5925
10280 6 tri 5485 5460 5435
10281 6 tri 5249 5638 5668
10282 6 tri 5755 5796 5790
10283 6 tri 5443 5435 5395
10284 6 tri 5538 5488 5518
10285 6 tri 5685 5741 5692
10286 6 tri 5806 5774 5775
10287 6 tri 5997 5981 5946
10288 6 tri 5910 5919 5943
10289 6 tri 5808 1033 1036
10290 6 tri 5749 5740 5722
10291 6 tri 5487 5482 5442
10292 6 tri 5786 5817 5784
10293 6 tri 5830 1018 5855
10294 6 tri 5517 5527 5493
10295 6 tri 5427 5440 5391
10296 6 tri 5792 5747 5771
10297 6 tri 5722 1042 5749
10298 6 tri 5694 5666 5702
10299 6 tri 5808 5840 5828
10300 6 tri 6159 6161 6195
10301 6 tri 1018 5886 1014
10302 6 tri 6149 6117 6136
10303 6 tri 6175 6181 6202
10304 6 tri 6295 6277 6249
10305 6 tri 6176 896 910
10306 6 tri 6322 6340 6353
10307 6 tri 6264 6231 6248
10308 6 tri 6270 858 6251
10309 6 tri 6132 6149 6156
10310 6 tri 5270 5269 6238
10311 6 tri 6322 6312 6340
10312 6 tri 858 6219 872
10313 6 tri 858 872 6251
10314 6 tri 6190 896 6176
10315 6 tri 5879 5912 5892
10316 6 tri 6118 6116 6090
10317 6 tri 6170 6182 6200
10318 6 tri 6112 5264 6085
10319 6 tri 5280 5279 6468
10320 6 tri 6338 6368 6349
10321 6 tri 6436 6414 6399
10322 6 tri 5286 6633 6675
10323 6 tri 6651 6633 6617
10324 6 tri 6448 5279 5278
10325 6 tri 6660 6708 6672
10326 6 tri 6434 6426 6410
10327 6 tri 6700 6705 6659
10328 6 tri 6423 6436 6399
10329 6 tri 6365 6349 6368
10330 6 tri 6562 6564 6595
10331 6 tri 6328 6336 6373
10332 6 tri 6386 6363 6404
10333 6 tri 6459 6471 6436
10334 6 tri 6353 6382 6360
10335 6 tri 6681 6644 6693
10336 6 tri 6529 6523 6489
10337 6 tri 6809 6777 6808
10338 6 tri 6614 6666 6637
10339 6 tri 6706 6682 6731
10340 6 tri 6781 6776 6780
10341 6 tri 6637 6666 6685
10342 6 tri 6805 6765 6730
10343 6 tri 6710 6731 6682
10344 6 tri 6344 6379 6336
10345 6 tri 6052 6077 6040
10346 6 tri 6499 6506 6541
10347 6 tri 6735 6681 6693
10348 6 tri 945 6070 6094
10349 6 tri 5999 6025 5988
10350 6 tri 6016 5981 6043
10351 6 tri 5993 5942 5982
10352 6 tri 6043 5981 5997
10353 6 tri 5985 5941 5973
10354 6 tri 6519 6498 6505
10355 6 tri 6234 6292 6276
10356 6 tri 6549 6551 6517
10357 6 tri 6685 6747 6733
10358 6 tri 6662 6664 6621
10359 6 tri 6699 6736 6767
10360 6 tri 5965 6003 6020
10361 6 tri 6164 6217 6210
10362 6 tri 6359 6384 6357
10363 6 tri 6173 6220 6208
10364 6 tri 6158 6185 6143
10365 6 tri 5955 5939 5964
10366 6 tri 6740 6691 6734
10367 6 tri 6475 6451 6460
10368 6 tri 6598 6622 6573
10369 6 tri 6729 6726 6683
10370 6 tri 6786 6770 6778
10371 6 tri 6779 6740 6734
10372 6 tri 5323 3922 5322
10373 6 tri 5296 3921 3920
10374 6 tri 5296 5322 3921
10375 6 tri 5324 3923 5323
10376 6 tri 5335 5383 5381
10377 6 tri 5615 5600 5565
10378 6 tri 5357 5323 5379
10379 6 tri 5473 5459 5504
10380 6 tri 5621 5576 5595
10381 6 tri 5565 5587 5615
10382 6 tri 5436 5447 5401
10383 6 tri 5381 5424 5372
10384 6 tri 5448 5480 5436
10385 6 tri 5474 5426 5447
10386 6 tri 5404 5436 5390
10387 6 tri 5503 5521 5546
10388 6 tri 5595 5576 5546
10389 6 tri 5503 5474 5447
10390 6 tri 5343 5356 5390
10391 6 tri 3917 5307 3918
10392 6 tri 5310 5345 5353
10393 6 tri 5310 3917 3916
10394 6 tri 5345 5310 5300
10395 6 tri 5307 3917 5310
10396 6 tri 5602 5620 5643
10397 6 tri 5758 5720 5751
10398 6 tri 5955 5921 5939
10399 6 tri 5955 5964 5986
10400 6 tri 6321 6327 6347
10401 6 tri 6317 6304 6321
10402 6 tri 6283 6304 6289
10403 6 tri 5974 5955 5986
10404 6 tri 5983 5960 5947
10405 6 tri 5899 5863 5865
10406 6 tri 5860 5877 5893
10407 6 tri 5916 5880 5893
10408 6 tri 5827 5816 5848
10409 6 tri 6018 6000 5983
10410 6 tri 5938 5899 5928
10411 6 tri 6014 5973 6000
10412 6 tri 5938 5960 5973
10413 6 tri 6048 6003 6030
10414 6 tri 5941 5900 5904
10415 6 tri 5941 5953 5900
10416 6 tri 5942 5911 5887
10417 6 tri 6030 6003 5985
10418 6 tri 6048 6020 6003
10419 6 tri 5733 5729 5773
10420 6 tri 5863 5826 5832
10421 6 tri 5861 5904 5900
10422 6 tri 5953 6003 5965
10423 6 tri 5851 5823 5804
10424 6 tri 5858 5814 5823
10425 6 tri 5777 5823 5814
10426 6 tri 5851 5900 5873
10427 6 tri 5614 5558 5576
10428 6 tri 5822 5851 5804
10429 6 tri 5822 5788 5826
10430 6 tri 5809 5793 5827
10431 6 tri 5550 5586 5562
10432 6 tri 5770 5804 5823
10433 6 tri 5642 5662 5625
10434 6 tri 5748 5780 5804
10435 6 tri 5524 5576 5558
10436 6 tri 5546 5562 5595
10437 6 tri 5672 5614 5660
10438 6 tri 5587 5558 5614
10439 6 tri 5594 5631 5606
10440 6 tri 5473 5467 5424
10441 6 tri 5657 5682 5659
10442 6 tri 5736 1837 1839
10443 6 tri 5564 5533 5543
10444 6 tri 5631 5594 5627
10445 6 tri 5645 1828 5664
10446 6 tri 1837 5682 1839
10447 6 tri 5698 5690 5663
10448 6 tri 1837 1834 5659
10449 6 tri 5699 1839 5682
10450 6 tri 5735 5778 5754
10451 6 tri 5727 5688 5708
10452 6 tri 5682 5657 5699
10453 6 tri 5733 5773 5757
10454 6 tri 5729 5726 5777
10455 6 tri 5794 5835 5821
10456 6 tri 5778 5757 5800
10457 6 tri 5946 5906 5952
10458 6 tri 5814 5773 5777
10459 6 tri 5915 5965 5942
10460 6 tri 6049 6041 6098
10461 6 tri 5898 5906 5946
10462 6 tri 5866 5867 5906
10463 6 tri 5898 5946 5934
10464 6 tri 5952 5993 5997
10465 6 tri 5762 5789 5746
10466 6 tri 1839 5699 5735
10467 6 tri 5779 5794 5821
10468 6 tri 5754 5778 5794
10469 6 tri 5889 5927 5931
10470 6 tri 5923 5932 5959
10471 6 tri 6198 6237 6203
10472 6 tri 5967 5959 5932
10473 6 tri 6088 6079 6038
10474 6 tri 5927 5969 5931
10475 6 tri 6052 6007 6009
10476 6 tri 6089 6062 6101
10477 6 tri 6044 6080 6088
10478 6 tri 6216 6224 6249
10479 6 tri 5890 5889 5854
10480 6 tri 5764 5768 5730
10481 6 tri 5967 5932 5931
10482 6 tri 5897 5871 5894
10483 6 tri 5711 5721 5747
10484 6 tri 5715 1050 1054
10485 6 tri 5849 5805 5837
10486 6 tri 5761 1042 1048
10487 6 tri 5721 5687 5679
10488 6 tri 5645 1824 1828
10489 6 tri 5711 5691 5675
10490 6 tri 5727 5708 5736
10491 6 tri 5654 5687 5675
10492 6 tri 5517 5542 5553
10493 6 tri 5599 1823 5619
10494 6 tri 1823 5559 5577
10495 6 tri 1058 5663 5690
10496 6 tri 5713 5676 5706
10497 6 tri 5630 5675 5648
10498 6 tri 1054 1050 5677
10499 6 tri 5542 5572 5553
10500 6 tri 5525 5510 5549
10501 6 tri 5399 5368 5402
10502 6 tri 5508 5545 5529
10503 6 tri 1811 5493 5471
10504 6 tri 5527 5508 5493
10505 6 tri 5466 5419 5463
10506 6 tri 1065 5612 1063
10507 6 tri 5449 1812 1811
10508 6 tri 1063 5612 5634
10509 6 tri 1817 5494 5515
10510 6 tri 5536 5559 1820
10511 6 tri 5472 1815 1812
10512 6 tri 5575 1820 5599
10513 6 tri 5536 1820 1819
10514 6 tri 5664 1828 1831
10515 6 tri 5612 5599 5630
10516 6 tri 5612 1065 5575
10517 6 tri 1820 1823 5599
10518 6 tri 5577 5540 5564
10519 6 tri 5584 5598 5564
10520 6 tri 5598 1824 5577
10521 6 tri 5462 5496 5501
10522 6 tri 5329 5371 5375
10523 6 tri 5501 5543 5533
10524 6 tri 5473 5424 5425
10525 6 tri 5470 5466 5500
10526 6 tri 5509 5466 5463
10527 6 tri 5506 5551 5552
10528 6 tri 5584 5617 5598
10529 6 tri 5462 5463 5422
10530 6 tri 5293 5341 5295
10531 6 tri 5540 5509 5499
10532 6 tri 5429 5414 5384
10533 6 tri 5329 3931 5325
10534 6 tri 5318 5328 5372
10535 6 tri 5329 5375 5315
10536 6 tri 5293 5295 3936
10537 6 tri 5432 5452 5472
10538 6 tri 5388 5432 5402
10539 6 tri 5450 5471 5490
10540 6 tri 5432 5449 5402
10541 6 tri 1812 5493 1811
10542 6 tri 3936 5295 3937
10543 6 tri 3939 5290 3940
10544 6 tri 5309 5298 3938
10545 6 tri 5399 5402 5428
10546 6 tri 5385 5395 5435
10547 6 tri 3943 3942 1804
10548 6 tri 1807 5355 5387
10549 6 tri 1805 1804 3942
10550 6 tri 5359 5319 5305
10551 6 tri 5417 5456 5412
10552 6 tri 5441 5408 5398
10553 6 tri 5398 5365 5409
10554 6 tri 5317 3947 3946
10555 6 tri 5441 5442 5482
10556 6 tri 5460 5415 5435
10557 6 tri 5465 5408 5441
10558 6 tri 5360 5398 5408
10559 6 tri 5380 5319 5359
10560 6 tri 5320 3956 5303
10561 6 tri 5338 3952 5294
10562 6 tri 3957 3956 5320
10563 6 tri 3959 3958 5313
10564 6 tri 5364 5320 5303
10565 6 tri 5351 5406 5396
10566 6 tri 5349 5361 5302
10567 6 tri 3957 5320 5327
10568 6 tri 3959 5313 5306
10569 6 tri 5444 5396 5406
10570 6 tri 3963 3962 5299
10571 6 tri 5321 3963 5299
10572 6 tri 5240 3965 5292
10573 6 tri 5347 5240 5292
10574 6 tri 5438 5476 5243
10575 6 tri 5445 5505 5475
10576 6 tri 5241 5240 5347
10577 6 tri 5349 5351 5396
10578 6 tri 5348 5299 5314
10579 6 tri 5314 3962 3961
10580 6 tri 5348 5361 5394
10581 6 tri 5348 5321 5299
10582 6 tri 5361 5349 5411
10583 6 tri 5502 5483 5444
10584 6 tri 5411 5396 5444
10585 6 tri 5671 5728 5707
10586 6 tri 5554 5574 5531
10587 6 tri 5712 5670 5653
10588 6 tri 5569 5609 5579
10589 6 tri 5879 5896 5912
10590 6 tri 5707 5712 5653
10591 6 tri 5609 5590 5618
10592 6 tri 5592 5640 5603
10593 6 tri 5763 5803 5772
10594 6 tri 5475 5505 5519
10595 6 tri 5495 5539 5514
10596 6 tri 5610 5638 5248
10597 6 tri 5667 5644 5680
10598 6 tri 5680 5709 5667
10599 6 tri 5253 5772 5801
10600 6 tri 5257 5892 5924
10601 6 tri 5862 5892 5256
10602 6 tri 5957 5258 5924
10603 6 tri 5256 5255 5862
10604 6 tri 5803 5843 5831
10605 6 tri 5975 6021 6005
10606 6 tri 5924 5258 5257
10607 6 tri 6005 6028 5995
10608 6 tri 5262 6026 6056
10609 6 tri 6110 6106 6076
10610 6 tri 5995 6027 5992
10611 6 tri 6051 6086 6058
10612 6 tri 5263 6085 5264
10613 6 tri 5998 5970 6001
10614 6 tri 6002 6021 5975
10615 6 tri 5977 5984 6012
10616 6 tri 6054 952 963
10617 6 tri 6063 6046 6081
10618 6 tri 6183 6147 6155
10619 6 tri 5956 979 5979
10620 6 tri 5728 5760 5707
10621 6 tri 5954 5970 5935
10622 6 tri 5940 5950 5977
10623 6 tri 5836 5797 5790
10624 6 tri 5563 5605 5560
10625 6 tri 5869 5918 5878
10626 6 tri 5949 5987 5958
10627 6 tri 5622 5653 5591
10628 6 tri 5670 5613 5653
10629 6 tri 5692 5728 5671
10630 6 tri 5791 5847 5810
10631 6 tri 5479 5511 5532
10632 6 tri 5532 5591 5556
10633 6 tri 5671 5622 5632
10634 6 tri 5532 5498 5479
10635 6 tri 5484 5528 5486
10636 6 tri 5535 5561 5511
10637 6 tri 5583 5581 5534
10638 6 tri 5465 5484 5433
10639 6 tri 5658 5633 5611
10640 6 tri 5484 5486 5443
10641 6 tri 5797 5791 5752
10642 6 tri 5692 5633 5685
10643 6 tri 5650 5658 5605
10644 6 tri 5710 5685 5658
10645 6 tri 5842 5872 5833
10646 6 tri 5945 5970 5976
10647 6 tri 5512 5482 5522
10648 6 tri 5465 5433 5408
10649 6 tri 5525 5549 5566
10650 6 tri 5560 5512 5522
10651 6 tri 5508 5490 5471
10652 6 tri 5593 5601 5626
10653 6 tri 5520 5541 5567
10654 6 tri 5658 5611 5605
10655 6 tri 5669 5666 5694
10656 6 tri 5740 5774 5744
10657 6 tri 5725 5743 5769
10658 6 tri 5755 5790 5741
10659 6 tri 5923 5919 5891
10660 6 tri 5943 5929 5910
10661 6 tri 5994 5990 5972
10662 6 tri 5943 5919 5951
10663 6 tri 5799 5842 5833
10664 6 tri 5930 5902 5907
10665 6 tri 5872 5901 5870
10666 6 tri 5948 994 999
10667 6 tri 5972 5968 5994
10668 6 tri 5998 6023 6011
10669 6 tri 969 963 6001
10670 6 tri 6034 6011 6023
10671 6 tri 979 6013 969
10672 6 tri 6216 6209 6183
10673 6 tri 979 5990 6013
10674 6 tri 6079 6109 6052
10675 6 tri 6066 6057 6082
10676 6 tri 6050 6029 6017
10677 6 tri 945 6034 952
10678 6 tri 969 6001 5979
10679 6 tri 6084 6068 6059
10680 6 tri 6115 6103 6129
10681 6 tri 6104 6084 6078
10682 6 tri 6123 6103 6082
10683 6 tri 6206 6235 6225
10684 6 tri 6168 6134 6146
10685 6 tri 6261 6224 6239
10686 6 tri 6209 6242 6228
10687 6 tri 6057 6064 6093
10688 6 tri 6261 6249 6224
10689 6 tri 6237 6253 6285
10690 6 tri 6285 6300 6252
10691 6 tri 6311 6254 6273
10692 6 tri 6300 6287 6252
10693 6 tri 6364 6392 6419
10694 6 tri 6444 6464 6485
10695 6 tri 6506 6499 6463
10696 6 tri 6336 6328 6287
10697 6 tri 6394 6421 6376
10698 6 tri 6489 6488 6457
10699 6 tri 6363 6386 6348
10700 6 tri 6465 6438 6463
10701 6 tri 6355 6394 6376
10702 6 tri 6443 6420 6457
10703 6 tri 6342 6355 6376
10704 6 tri 6465 6499 6509
10705 6 tri 6248 6266 6282
10706 6 tri 6411 6386 6420
10707 6 tri 6348 6354 6324
10708 6 tri 6312 6324 6340
10709 6 tri 6412 6423 6390
10710 6 tri 6350 6313 6329
10711 6 tri 6360 6366 6341
10712 6 tri 6338 6349 6320
10713 6 tri 6469 6507 6483
10714 6 tri 6617 6586 6618
10715 6 tri 6360 6335 6353
10716 6 tri 6341 6308 6316
10717 6 tri 6329 6313 6293
10718 6 tri 6274 6313 6278
10719 6 tri 6264 6281 6251
10720 6 tri 6125 6163 6153
10721 6 tri 6247 6218 6245
10722 6 tri 6284 853 6270
10723 6 tri 6363 6342 6376
10724 6 tri 6281 6298 6312
10725 6 tri 6263 6277 6301
10726 6 tri 6324 6312 6298
10727 6 tri 6201 6229 6218
10728 6 tri 6065 6051 6021
10729 6 tri 6174 6209 6193
10730 6 tri 6248 6231 6225
10731 6 tri 6141 6179 6163
10732 6 tri 6187 6214 6182
10733 6 tri 6201 6218 6179
10734 6 tri 6221 6214 6187
10735 6 tri 6141 6163 6125
10736 6 tri 6058 6028 6051
10737 6 tri 6118 6153 6148
10738 6 tri 6320 6310 6338
10739 6 tri 6223 6200 6226
10740 6 tri 6214 6243 6250
10741 6 tri 6170 6165 6144
10742 6 tri 6182 6153 6187
10743 6 tri 5267 5266 6165
10744 6 tri 6112 6085 6113
10745 6 tri 5265 5264 6112
10746 6 tri 5957 5260 5259
10747 6 tri 5272 6318 5273
10748 6 tri 6408 5276 6389
10749 6 tri 6427 6410 6396
10750 6 tri 6476 6496 6473
10751 6 tri 6512 5282 5281
10752 6 tri 6250 6267 6240
10753 6 tri 6331 6356 6343
10754 6 tri 5272 5271 6291
10755 6 tri 6380 6368 6350
10756 6 tri 6387 6396 6410
10757 6 tri 6455 6453 6434
10758 6 tri 6426 6428 6408
10759 6 tri 6471 6478 6449
10760 6 tri 6448 6428 6426
10761 6 tri 6535 6562 6528
10762 6 tri 6709 6656 6687
10763 6 tri 6638 6595 6626
10764 6 tri 6667 6642 6684
10765 6 tri 6660 6672 6626
10766 6 tri 6647 6667 6697
10767 6 tri 6694 6746 6708
10768 6 tri 6550 6562 6586
10769 6 tri 6749 6695 6739
10770 6 tri 6567 6579 6599
10771 6 tri 6618 6595 6638
10772 6 tri 6473 6496 6491
10773 6 tri 6476 6478 6500
10774 6 tri 6579 6550 6586
10775 6 tri 6626 6616 6660
10776 6 tri 6550 6528 6562
10777 6 tri 6491 6496 6512
10778 6 tri 6675 6717 5287
10779 6 tri 5289 5288 6771
10780 6 tri 6727 6696 6679
10781 6 tri 6766 6751 6718
10782 6 tri 6732 6818 6819
10783 6 tri 6601 6616 6570
10784 6 tri 6821 6822 6742
10785 6 tri 6824 6825 6769
10786 6 tri 6766 6820 6751
10787 6 tri 6751 6697 6718
10788 6 tri 6742 6746 6694
10789 6 tri 6684 6718 6667
10790 6 tri 6601 6647 6616
10791 6 tri 6698 6650 6707
10792 6 tri 6459 6494 6471
10793 6 tri 6558 6574 6601
10794 6 tri 6523 6488 6489
10795 6 tri 6450 6489 6457
10796 6 tri 6607 6559 6594
10797 6 tri 6490 6529 6489
10798 6 tri 6623 6576 6612
10799 6 tri 6597 6568 6607
10800 6 tri 6690 6709 6750
10801 6 tri 6709 6690 6656
10802 6 tri 6623 6665 6650
10803 6 tri 6763 6706 6731
10804 6 tri 6758 6707 6754
10805 6 tri 6811 6760 6810
10806 6 tri 6418 6470 6463
10807 6 tri 6543 6538 6509
10808 6 tri 6490 6509 6538
10809 6 tri 6499 6543 6509
10810 6 tri 6655 6634 6677
10811 6 tri 6593 6644 6631
10812 6 tri 6581 6541 6582
10813 6 tri 6765 6712 6730
10814 6 tri 6680 6712 6661
10815 6 tri 6677 6673 6722
10816 6 tri 6706 6730 6680
10817 6 tri 6765 6806 6741
10818 6 tri 6710 6692 6744
10819 6 tri 6722 6777 6760
10820 6 tri 6741 6735 6693
10821 6 tri 6802 6762 6801
10822 6 tri 6764 6789 6790
10823 6 tri 6686 6629 6664
10824 6 tri 6624 6662 6621
10825 6 tri 6790 6791 6745
10826 6 tri 6715 6702 6759
10827 6 tri 6714 6757 6701
10828 6 tri 6788 6789 6753
10829 6 tri 6745 6736 6686
10830 6 tri 6764 6745 6716
10831 6 tri 6600 6648 6627
10832 6 tri 6653 6702 6666
10833 6 tri 6689 6674 6721
10834 6 tri 6748 6795 6796
10835 6 tri 6775 6795 6748
10836 6 tri 6796 6738 6748
10837 6 tri 6692 6685 6733
10838 6 tri 6744 6800 6801
10839 6 tri 6744 6733 6800
10840 6 tri 6733 6799 6800
10841 6 tri 6585 6551 6583
10842 6 tri 6715 6747 6685
10843 6 tri 6657 6605 6646
10844 6 tri 6666 6715 6685
10845 6 tri 6493 6513 6472
10846 6 tri 6602 6637 6646
10847 6 tri 6587 6553 6605
10848 6 tri 6452 6482 6440
10849 6 tri 6689 6748 6738
10850 6 tri 6508 6524 6552
10851 6 tri 6584 6545 6556
10852 6 tri 6425 6392 6375
10853 6 tri 6591 6603 6556
10854 6 tri 6603 6584 6556
10855 6 tri 6419 6442 6464
10856 6 tri 6649 6682 6706
10857 6 tri 6653 6613 6639
10858 6 tri 6653 6666 6614
10859 6 tri 6395 6344 6364
10860 6 tri 6204 6252 6239
10861 6 tri 6367 6397 6346
10862 6 tri 6553 6563 6605
10863 6 tri 6195 6224 6188
10864 6 tri 6029 6004 6017
10865 6 tri 6162 6178 6215
10866 6 tri 6164 6099 6139
10867 6 tri 6332 6367 6311
10868 6 tri 6254 6234 6191
10869 6 tri 6332 6358 6391
10870 6 tri 6375 6392 6333
10871 6 tri 6367 6416 6397
10872 6 tri 6493 6462 6502
10873 6 tri 6591 6557 6600
10874 6 tri 6536 6575 6577
10875 6 tri 6208 6244 6197
10876 6 tri 6370 6334 6337
10877 6 tri 6391 6440 6439
10878 6 tri 6439 6416 6391
10879 6 tri 6098 6139 6099
10880 6 tri 6210 6217 6273
10881 6 tri 6154 6197 6139
10882 6 tri 6259 6273 6217
10883 6 tri 6095 6114 6143
10884 6 tri 6197 6217 6164
10885 6 tri 6030 6014 6053
10886 6 tri 6374 6370 6407
10887 6 tri 6217 6197 6259
10888 6 tri 6299 6260 6265
10889 6 tri 6220 6260 6258
10890 6 tri 6406 6377 6384
10891 6 tri 6629 6600 6585
10892 6 tri 6520 6516 6479
10893 6 tri 6622 6624 6590
10894 6 tri 6435 6441 6407
10895 6 tri 6441 6477 6456
10896 6 tri 6487 6531 6521
10897 6 tri 6482 6521 6520
10898 6 tri 6497 6456 6477
10899 6 tri 6624 6621 6583
10900 6 tri 6600 6627 6591
10901 6 tri 6678 6636 6671
10902 6 tri 6636 6603 6591
10903 6 tri 6598 6554 6580
10904 6 tri 6663 6701 6662
10905 6 tri 6770 6757 6714
10906 6 tri 6701 6753 6704
10907 6 tri 6370 6371 6401
10908 6 tri 6403 6377 6406
10909 6 tri 6486 6461 6458
10910 6 tri 6430 6424 6454
10911 6 tri 6403 6371 6377
10912 6 tri 6357 6330 6359
10913 6 tri 6445 6454 6424
10914 6 tri 6378 6374 6413
10915 6 tri 6337 6323 6351
10916 6 tri 6374 6334 6370
10917 6 tri 6351 6357 6377
10918 6 tri 6173 6143 6185
10919 6 tri 6233 6222 6212
10920 6 tri 6370 6337 6371
10921 6 tri 6303 6260 6299
10922 6 tri 6033 6018 6055
10923 6 tri 6019 6015 5989
10924 6 tri 6030 6074 6048
10925 6 tri 6173 6185 6220
10926 6 tri 6158 6199 6185
10927 6 tri 6325 6302 6330
10928 6 tri 6345 6347 6361
10929 6 tri 6283 6280 6305
10930 6 tri 6257 6233 6230
10931 6 tri 6317 6345 6330
10932 6 tri 6400 6409 6422
10933 6 tri 6126 6138 6107
10934 6 tri 6207 6172 6177
10935 6 tri 6036 6018 6006
10936 6 tri 6138 6151 6121
10937 6 tri 6186 6157 6180
10938 6 tri 6272 6283 6289
10939 6 tri 6257 6280 6283
10940 6 tri 6580 6569 6609
10941 6 tri 6619 6645 6610
10942 6 tri 6740 6688 6691
10943 6 tri 6554 6573 6534
10944 6 tri 6519 6542 6515
10945 6 tri 6467 6445 6451
10946 6 tri 6645 6652 6688
10947 6 tri 6580 6554 6544
10948 6 tri 6474 6467 6492
10949 6 tri 6583 6551 6549
10950 6 tri 6466 6477 6441
10951 6 tri 6703 6725 6768
10952 6 tri 6622 6663 6624
10953 6 tri 6670 6641 6625
10954 6 tri 6726 6714 6669
10955 6 tri 6729 6670 6711
10956 6 tri 6658 6625 6609
10957 6 tri 6729 6774 6778
10958 6 tri 6703 6658 6676
10959 6 tri 6768 6782 6755
10960 6 tri 5322 3922 3921
10961 6 tri 5343 5390 5401
10962 6 tri 3919 5304 3920
10963 6 tri 5350 5322 5296
10964 6 tri 3918 5307 3919
10965 6 tri 3920 5304 5296
10966 6 tri 3919 5307 5304
10967 6 tri 3915 5337 5300
10968 6 tri 3916 5300 5310
10969 6 tri 3916 3915 5300
10970 6 tri 5378 5345 5337
10971 6 tri 5300 5337 5345
10972 6 tri 5404 5353 5393
10973 6 tri 5356 5307 5353
10974 6 tri 5448 5404 5439
10975 6 tri 5353 5345 5393
10976 6 tri 5404 5390 5356
10977 6 tri 5436 5401 5390
10978 6 tri 5353 5404 5356
10979 6 tri 5393 5439 5404
10980 6 tri 5304 5343 5296
10981 6 tri 5304 5356 5343
10982 6 tri 5343 5350 5296
10983 6 tri 5401 5379 5350
10984 6 tri 3922 5323 3923
10985 6 tri 5322 5350 5379
10986 6 tri 5426 5407 5379
10987 6 tri 5425 5424 5381
10988 6 tri 3924 5324 5335
10989 6 tri 3924 3923 5324
10990 6 tri 5323 5357 5324
10991 6 tri 5407 5426 5459
10992 6 tri 5357 5383 5324
10993 6 tri 5357 5379 5407
10994 6 tri 5357 5407 5383
10995 6 tri 5530 5558 5587
10996 6 tri 5383 5407 5425
10997 6 tri 5379 5401 5426
10998 6 tri 5447 5426 5401
10999 6 tri 5474 5459 5426
11000 6 tri 5404 5448 5436
11001 6 tri 5478 5469 5507
11002 6 tri 5407 5459 5425
11003 6 tri 5474 5524 5504
11004 6 tri 5521 5480 5491
11005 6 tri 5503 5524 5474
11006 6 tri 5473 5504 5530
11007 6 tri 5459 5474 5504
11008 6 tri 5576 5524 5546
11009 6 tri 5558 5504 5524
11010 6 tri 5521 5503 5480
11011 6 tri 5546 5524 5503
11012 6 tri 5516 5521 5491
11013 6 tri 5562 5546 5521
11014 6 tri 5582 5550 5544
11015 6 tri 5491 5448 5478
11016 6 tri 5521 5550 5562
11017 6 tri 5516 5507 5544
11018 6 tri 5478 5448 5439
11019 6 tri 5491 5480 5448
11020 6 tri 5491 5478 5516
11021 6 tri 5439 5434 5469
11022 6 tri 5439 5393 5434
11023 6 tri 5439 5469 5478
11024 6 tri 5478 5507 5516
11025 6 tri 5469 5489 5507
11026 6 tri 5582 5544 5571
11027 6 tri 5550 5516 5544
11028 6 tri 5571 5537 5557
11029 6 tri 5544 5507 5537
11030 6 tri 5571 5557 5588
11031 6 tri 5537 5523 5557
11032 6 tri 5455 5434 5421
11033 6 tri 5507 5489 5523
11034 6 tri 5469 5455 5489
11035 6 tri 5389 5345 5378
11036 6 tri 5469 5434 5455
11037 6 tri 5421 5389 5378
11038 6 tri 5434 5389 5421
11039 6 tri 5434 5393 5389
11040 6 tri 5588 5602 5571
11041 6 tri 5588 5620 5602
11042 6 tri 5620 5652 5643
11043 6 tri 5602 5643 5624
11044 6 tri 5652 5686 5681
11045 6 tri 5720 5686 5718
11046 6 tri 5793 5816 5827
11047 6 tri 5793 5776 5758
11048 6 tri 5909 5939 5921
11049 6 tri 6045 6047 6069
11050 6 tri 6015 5986 5989
11051 6 tri 5986 5964 5989
11052 6 tri 5893 5880 5860
11053 6 tri 5877 5909 5893
11054 6 tri 5860 5846 5827
11055 6 tri 5745 5759 5788
11056 6 tri 5832 5798 5809
11057 6 tri 5780 5822 5804
11058 6 tri 5848 5860 5827
11059 6 tri 5798 5759 5776
11060 6 tri 5899 5865 5895
11061 6 tri 5832 5846 5865
11062 6 tri 5899 5895 5928
11063 6 tri 5865 5880 5895
11064 6 tri 5827 5846 5809
11065 6 tri 5880 5865 5846
11066 6 tri 5877 5860 5848
11067 6 tri 5880 5846 5860
11068 6 tri 5947 5921 5955
11069 6 tri 5916 5893 5921
11070 6 tri 6006 5974 5986
11071 6 tri 5974 5947 5955
11072 6 tri 5983 5974 6006
11073 6 tri 5947 5916 5921
11074 6 tri 6045 6015 6019
11075 6 tri 6006 5986 6015
11076 6 tri 6018 5983 6006
11077 6 tri 6000 5960 5983
11078 6 tri 6015 6036 6006
11079 6 tri 6014 6030 5985
11080 6 tri 5928 5916 5947
11081 6 tri 5895 5880 5916
11082 6 tri 5983 5947 5974
11083 6 tri 5928 5895 5916
11084 6 tri 5985 5973 6014
11085 6 tri 5973 5960 6000
11086 6 tri 6018 6033 6000
11087 6 tri 6053 6074 6030
11088 6 tri 6108 6092 6072
11089 6 tri 6014 6000 6033
11090 6 tri 5942 5965 5982
11091 6 tri 5920 5900 5953
11092 6 tri 5965 6020 5982
11093 6 tri 6073 6120 6098
11094 6 tri 5973 5941 5938
11095 6 tri 5985 6003 5953
11096 6 tri 5915 5920 5965
11097 6 tri 5941 5985 5953
11098 6 tri 5941 5904 5938
11099 6 tri 5900 5851 5861
11100 6 tri 5965 5920 5953
11101 6 tri 5873 5823 5851
11102 6 tri 5904 5899 5938
11103 6 tri 5863 5861 5826
11104 6 tri 5960 5928 5947
11105 6 tri 5960 5938 5928
11106 6 tri 5832 5826 5798
11107 6 tri 5832 5865 5863
11108 6 tri 5904 5863 5899
11109 6 tri 5904 5861 5863
11110 6 tri 5822 5861 5851
11111 6 tri 5822 5826 5861
11112 6 tri 5915 5873 5920
11113 6 tri 5858 5887 5844
11114 6 tri 5656 5615 5637
11115 6 tri 5683 5662 5642
11116 6 tri 5726 5714 5770
11117 6 tri 5651 5595 5625
11118 6 tri 5777 5726 5770
11119 6 tri 5689 5693 5656
11120 6 tri 5745 5780 5734
11121 6 tri 5651 5660 5621
11122 6 tri 5695 5734 5748
11123 6 tri 5696 5717 5745
11124 6 tri 5695 5748 5714
11125 6 tri 5734 5780 5748
11126 6 tri 5745 5788 5780
11127 6 tri 5788 5822 5780
11128 6 tri 5782 5793 5758
11129 6 tri 5809 5798 5776
11130 6 tri 5798 5788 5759
11131 6 tri 5798 5826 5788
11132 6 tri 5759 5737 5776
11133 6 tri 5720 5718 5751
11134 6 tri 5816 5793 5782
11135 6 tri 5809 5776 5793
11136 6 tri 5737 5720 5758
11137 6 tri 5701 5681 5720
11138 6 tri 5720 5737 5701
11139 6 tri 5758 5776 5737
11140 6 tri 5662 5683 5696
11141 6 tri 5701 5737 5717
11142 6 tri 5696 5745 5734
11143 6 tri 5717 5759 5745
11144 6 tri 5586 5608 5625
11145 6 tri 5624 5643 5661
11146 6 tri 5717 5683 5701
11147 6 tri 5717 5696 5683
11148 6 tri 5642 5661 5683
11149 6 tri 5643 5652 5681
11150 6 tri 5720 5681 5686
11151 6 tri 5701 5661 5681
11152 6 tri 5624 5582 5602
11153 6 tri 5544 5537 5571
11154 6 tri 5602 5582 5571
11155 6 tri 5608 5642 5625
11156 6 tri 5595 5586 5625
11157 6 tri 5550 5582 5586
11158 6 tri 5582 5608 5586
11159 6 tri 5624 5642 5608
11160 6 tri 5586 5595 5562
11161 6 tri 5625 5662 5651
11162 6 tri 5695 5660 5651
11163 6 tri 5614 5576 5621
11164 6 tri 5696 5651 5662
11165 6 tri 5696 5734 5695
11166 6 tri 5660 5695 5714
11167 6 tri 5651 5696 5695
11168 6 tri 5726 5672 5714
11169 6 tri 5614 5621 5660
11170 6 tri 5714 5672 5660
11171 6 tri 5689 5729 5693
11172 6 tri 5637 5587 5614
11173 6 tri 5565 5600 5551
11174 6 tri 5587 5637 5615
11175 6 tri 5614 5672 5637
11176 6 tri 5473 5530 5513
11177 6 tri 5504 5558 5530
11178 6 tri 5530 5565 5513
11179 6 tri 5568 5606 5584
11180 6 tri 5513 5565 5551
11181 6 tri 5530 5587 5565
11182 6 tri 5589 5594 5552
11183 6 tri 5659 5682 1837
11184 6 tri 5589 5627 5594
11185 6 tri 5646 5615 5656
11186 6 tri 5600 5589 5551
11187 6 tri 5526 5543 5496
11188 6 tri 5551 5589 5552
11189 6 tri 5600 5627 5589
11190 6 tri 5584 5564 5543
11191 6 tri 5577 5559 5540
11192 6 tri 5594 5568 5552
11193 6 tri 5594 5606 5568
11194 6 tri 5564 5540 5533
11195 6 tri 5559 5536 5540
11196 6 tri 5598 5577 5564
11197 6 tri 5598 1828 1824
11198 6 tri 1823 1824 5619
11199 6 tri 1823 5577 1824
11200 6 tri 5636 5617 5606
11201 6 tri 5636 1831 5617
11202 6 tri 5568 5584 5543
11203 6 tri 5606 5617 5584
11204 6 tri 5657 5631 5627
11205 6 tri 5636 5606 5631
11206 6 tri 5664 1831 5688
11207 6 tri 1831 5636 1834
11208 6 tri 5687 5654 5679
11209 6 tri 5654 5619 5645
11210 6 tri 5679 5664 5705
11211 6 tri 5679 5645 5664
11212 6 tri 5698 5691 5730
11213 6 tri 5679 5705 5721
11214 6 tri 5664 5688 5705
11215 6 tri 5736 1839 5754
11216 6 tri 1834 1837 5708
11217 6 tri 1834 5636 5659
11218 6 tri 5736 5708 1837
11219 6 tri 5688 1834 5708
11220 6 tri 5600 5646 5627
11221 6 tri 5735 5757 5778
11222 6 tri 5693 5716 5674
11223 6 tri 5716 5735 5699
11224 6 tri 5674 5657 5627
11225 6 tri 5674 5699 5657
11226 6 tri 5631 5659 5636
11227 6 tri 5631 5657 5659
11228 6 tri 5627 5646 5674
11229 6 tri 5600 5615 5646
11230 6 tri 5672 5689 5637
11231 6 tri 5693 5646 5656
11232 6 tri 5729 5689 5726
11233 6 tri 5656 5637 5689
11234 6 tri 5674 5716 5699
11235 6 tri 5693 5729 5733
11236 6 tri 5716 5733 5757
11237 6 tri 5716 5693 5733
11238 6 tri 1839 5735 5754
11239 6 tri 5716 5757 5735
11240 6 tri 5794 5779 5754
11241 6 tri 5746 5789 5771
11242 6 tri 5754 5779 5736
11243 6 tri 5807 5834 5789
11244 6 tri 5818 5800 5844
11245 6 tri 5818 5778 5800
11246 6 tri 5729 5777 5773
11247 6 tri 5770 5823 5777
11248 6 tri 5858 5844 5814
11249 6 tri 5800 5773 5814
11250 6 tri 5867 5844 5887
11251 6 tri 5800 5814 5844
11252 6 tri 5915 5858 5873
11253 6 tri 5887 5911 5867
11254 6 tri 5915 5887 5858
11255 6 tri 5915 5942 5887
11256 6 tri 5942 5993 5952
11257 6 tri 5982 6020 6041
11258 6 tri 5906 5867 5911
11259 6 tri 5835 5818 5867
11260 6 tri 5952 5997 5946
11261 6 tri 5993 6041 6049
11262 6 tri 5867 5818 5844
11263 6 tri 5835 5794 5818
11264 6 tri 5898 5866 5906
11265 6 tri 5821 5835 5866
11266 6 tri 5859 5813 5834
11267 6 tri 5821 5866 5852
11268 6 tri 5859 5883 5913
11269 6 tri 5852 5866 5898
11270 6 tri 5883 5898 5934
11271 6 tri 5883 5852 5898
11272 6 tri 5963 5981 6016
11273 6 tri 5934 5946 5981
11274 6 tri 5981 5963 5934
11275 6 tri 5991 6038 6009
11276 6 tri 6044 6016 6080
11277 6 tri 6044 5991 6016
11278 6 tri 5837 5859 5885
11279 6 tri 5834 5852 5883
11280 6 tri 5963 5913 5934
11281 6 tri 5963 5936 5913
11282 6 tri 5786 5784 5761
11283 6 tri 5807 5779 5821
11284 6 tri 5859 5834 5883
11285 6 tri 5813 5771 5789
11286 6 tri 5813 5789 5834
11287 6 tri 5746 5721 5705
11288 6 tri 5762 5807 5789
11289 6 tri 5821 5852 5807
11290 6 tri 5688 5727 5705
11291 6 tri 5736 5779 5762
11292 6 tri 5736 5762 5727
11293 6 tri 5779 5807 5762
11294 6 tri 5727 5746 5705
11295 6 tri 5711 5687 5721
11296 6 tri 5762 5746 5727
11297 6 tri 5771 5721 5746
11298 6 tri 5771 5747 5721
11299 6 tri 5771 5813 5792
11300 6 tri 5732 5730 5768
11301 6 tri 5732 5690 5698
11302 6 tri 5805 5768 5764
11303 6 tri 5730 5691 5723
11304 6 tri 5756 5732 5768
11305 6 tri 5837 5813 5859
11306 6 tri 5849 5815 5805
11307 6 tri 5854 5853 5820
11308 6 tri 5837 5792 5813
11309 6 tri 5764 5747 5792
11310 6 tri 5768 5805 5815
11311 6 tri 5764 5792 5805
11312 6 tri 5849 5837 5885
11313 6 tri 5805 5792 5837
11314 6 tri 5913 5936 5885
11315 6 tri 5991 6044 6038
11316 6 tri 5963 5991 5936
11317 6 tri 5991 6009 5971
11318 6 tri 5936 5991 5971
11319 6 tri 5963 6016 5991
11320 6 tri 5971 5927 5936
11321 6 tri 5971 5969 5927
11322 6 tri 5971 6009 5969
11323 6 tri 6038 6052 6009
11324 6 tri 5890 5849 5885
11325 6 tri 5890 5854 5849
11326 6 tri 5936 5890 5885
11327 6 tri 5927 5889 5890
11328 6 tri 5817 5853 5840
11329 6 tri 5889 5931 5894
11330 6 tri 5849 5854 5815
11331 6 tri 5889 5853 5854
11332 6 tri 5889 5894 5853
11333 6 tri 5923 5959 5951
11334 6 tri 5931 5932 5894
11335 6 tri 5931 5969 5967
11336 6 tri 6007 5967 5969
11337 6 tri 6007 5999 5967
11338 6 tri 5894 5871 5853
11339 6 tri 5868 5891 5886
11340 6 tri 5853 5871 5840
11341 6 tri 5894 5932 5897
11342 6 tri 5715 5732 5756
11343 6 tri 5820 5853 5817
11344 6 tri 5808 5817 5840
11345 6 tri 5786 5783 5820
11346 6 tri 5761 5756 5786
11347 6 tri 5768 5815 5783
11348 6 tri 5786 5820 5817
11349 6 tri 5815 5854 5820
11350 6 tri 5783 5756 5768
11351 6 tri 5715 5690 5732
11352 6 tri 5786 5756 5783
11353 6 tri 5738 5715 5756
11354 6 tri 5702 1050 1048
11355 6 tri 5761 5784 1042
11356 6 tri 5738 5761 1048
11357 6 tri 5738 5756 5761
11358 6 tri 5655 1054 5677
11359 6 tri 5715 5738 1050
11360 6 tri 5666 5647 5677
11361 6 tri 5553 5545 5527
11362 6 tri 5722 5694 5702
11363 6 tri 1054 1058 5690
11364 6 tri 5647 5655 5677
11365 6 tri 5623 5601 5578
11366 6 tri 5629 5597 5604
11367 6 tri 5629 1061 1058
11368 6 tri 1058 1054 5655
11369 6 tri 5690 5715 1054
11370 6 tri 5634 5648 5665
11371 6 tri 5730 5732 5698
11372 6 tri 5663 5665 5698
11373 6 tri 5675 5687 5711
11374 6 tri 5764 5723 5747
11375 6 tri 5764 5730 5723
11376 6 tri 5665 5675 5691
11377 6 tri 5630 5654 5675
11378 6 tri 5723 5711 5747
11379 6 tri 5723 5691 5711
11380 6 tri 5665 5648 5675
11381 6 tri 5612 5630 5648
11382 6 tri 5619 5654 5630
11383 6 tri 5645 5679 5654
11384 6 tri 5578 5601 5570
11385 6 tri 5612 5648 5634
11386 6 tri 5698 5665 5691
11387 6 tri 5663 5634 5665
11388 6 tri 1063 5580 1065
11389 6 tri 5555 1817 1819
11390 6 tri 1061 5604 1063
11391 6 tri 5604 5572 5580
11392 6 tri 5555 1819 5575
11393 6 tri 5575 5599 5612
11394 6 tri 5599 5619 5630
11395 6 tri 1824 5645 5619
11396 6 tri 5580 5555 1065
11397 6 tri 5515 5536 1819
11398 6 tri 5555 5575 1065
11399 6 tri 1819 1820 5575
11400 6 tri 5572 5542 5580
11401 6 tri 5517 1812 1815
11402 6 tri 5542 5555 5580
11403 6 tri 5542 1815 1817
11404 6 tri 1063 5604 5580
11405 6 tri 5597 5578 5553
11406 6 tri 5634 1061 1063
11407 6 tri 1058 5655 5629
11408 6 tri 1061 5629 5604
11409 6 tri 5655 5647 5623
11410 6 tri 5663 1061 5634
11411 6 tri 5663 1058 1061
11412 6 tri 5604 5597 5572
11413 6 tri 5629 5623 5597
11414 6 tri 5655 5623 5629
11415 6 tri 5647 5601 5623
11416 6 tri 5517 5553 5527
11417 6 tri 5572 5597 5553
11418 6 tri 5553 5578 5545
11419 6 tri 5597 5623 5578
11420 6 tri 5493 5508 5471
11421 6 tri 5527 5545 5508
11422 6 tri 5449 5472 1812
11423 6 tri 1817 5515 1819
11424 6 tri 5517 1815 5542
11425 6 tri 5472 5494 1815
11426 6 tri 5344 5388 5402
11427 6 tri 5388 5369 5414
11428 6 tri 5428 5449 1811
11429 6 tri 5432 5472 5449
11430 6 tri 5449 5428 5402
11431 6 tri 1811 5471 1810
11432 6 tri 5450 1810 5471
11433 6 tri 5428 1811 1810
11434 6 tri 3940 5290 5332
11435 6 tri 5340 5368 5387
11436 6 tri 5355 5332 5290
11437 6 tri 5387 5399 1809
11438 6 tri 5340 5387 5355
11439 6 tri 5298 5340 5290
11440 6 tri 5298 5309 5368
11441 6 tri 5341 5344 5295
11442 6 tri 5295 5309 3937
11443 6 tri 5344 5368 5309
11444 6 tri 5298 5368 5340
11445 6 tri 5344 5402 5368
11446 6 tri 1810 5399 5428
11447 6 tri 5387 5368 5399
11448 6 tri 5429 5470 5452
11449 6 tri 5414 5432 5388
11450 6 tri 3935 3934 5336
11451 6 tri 5293 5369 5341
11452 6 tri 3934 5330 5336
11453 6 tri 3933 5330 3934
11454 6 tri 5336 5330 5384
11455 6 tri 3933 3932 5315
11456 6 tri 5293 5336 5369
11457 6 tri 5293 3935 5336
11458 6 tri 5336 5384 5369
11459 6 tri 5375 5371 5422
11460 6 tri 5384 5414 5369
11461 6 tri 5452 5432 5414
11462 6 tri 5419 5429 5384
11463 6 tri 5466 5470 5429
11464 6 tri 5341 5388 5344
11465 6 tri 5341 5369 5388
11466 6 tri 5429 5452 5414
11467 6 tri 5470 5494 5452
11468 6 tri 5452 5494 5472
11469 6 tri 5470 5515 5494
11470 6 tri 5542 1817 5555
11471 6 tri 1815 5494 1817
11472 6 tri 5419 5466 5429
11473 6 tri 5499 5533 5540
11474 6 tri 5515 5500 5536
11475 6 tri 5515 5470 5500
11476 6 tri 5536 5509 5540
11477 6 tri 5500 5466 5509
11478 6 tri 5330 5367 5384
11479 6 tri 5422 5463 5419
11480 6 tri 5463 5499 5509
11481 6 tri 5462 5422 5413
11482 6 tri 5526 5496 5477
11483 6 tri 5462 5499 5463
11484 6 tri 5453 5462 5413
11485 6 tri 5501 5533 5499
11486 6 tri 5453 5496 5462
11487 6 tri 5526 5568 5543
11488 6 tri 5462 5501 5499
11489 6 tri 5496 5543 5501
11490 6 tri 5431 5458 5477
11491 6 tri 5467 5513 5506
11492 6 tri 5506 5526 5477
11493 6 tri 5552 5568 5526
11494 6 tri 5467 5473 5513
11495 6 tri 5425 5459 5473
11496 6 tri 5458 5506 5477
11497 6 tri 5513 5551 5506
11498 6 tri 5363 5418 5405
11499 6 tri 5424 5467 5418
11500 6 tri 5496 5453 5477
11501 6 tri 5418 5467 5458
11502 6 tri 5397 5431 5453
11503 6 tri 5405 5418 5458
11504 6 tri 5397 5453 5413
11505 6 tri 5431 5477 5453
11506 6 tri 5371 5325 5358
11507 6 tri 5363 5372 5418
11508 6 tri 5376 5405 5431
11509 6 tri 5376 5326 5363
11510 6 tri 5318 5372 5363
11511 6 tri 5335 5324 5383
11512 6 tri 5328 5381 5372
11513 6 tri 5383 5425 5381
11514 6 tri 3927 5318 5326
11515 6 tri 3927 3926 5318
11516 6 tri 5328 5335 5381
11517 6 tri 5328 3925 5335
11518 6 tri 5376 5334 5326
11519 6 tri 5358 5413 5371
11520 6 tri 5376 5363 5405
11521 6 tri 5326 5318 5363
11522 6 tri 3930 5308 5325
11523 6 tri 5334 5376 5358
11524 6 tri 5308 5358 5325
11525 6 tri 5334 5358 5308
11526 6 tri 5376 5431 5397
11527 6 tri 5358 5397 5413
11528 6 tri 5358 5376 5397
11529 6 tri 5384 5367 5419
11530 6 tri 5329 3932 3931
11531 6 tri 5419 5375 5422
11532 6 tri 5367 5315 5375
11533 6 tri 5330 5315 5367
11534 6 tri 5330 3933 5315
11535 6 tri 3932 5329 5315
11536 6 tri 5325 5371 5329
11537 6 tri 3931 3930 5325
11538 6 tri 3929 5308 3930
11539 6 tri 5326 3928 3927
11540 6 tri 5326 5334 3928
11541 6 tri 5334 5308 3929
11542 6 tri 5328 5318 3926
11543 6 tri 5335 3925 3924
11544 6 tri 5328 3926 3925
11545 6 tri 3936 3935 5293
11546 6 tri 5309 3938 3937
11547 6 tri 5298 5290 3939
11548 6 tri 3938 5298 3939
11549 6 tri 5332 3941 3940
11550 6 tri 5305 3948 3947
11551 6 tri 3949 5331 3950
11552 6 tri 5311 5312 3945
11553 6 tri 5398 5360 5365
11554 6 tri 5305 3947 5317
11555 6 tri 5317 5312 5365
11556 6 tri 3945 3944 5311
11557 6 tri 3945 5312 3946
11558 6 tri 5311 5362 5312
11559 6 tri 1806 1805 5291
11560 6 tri 5339 5316 1804
11561 6 tri 5373 5339 1805
11562 6 tri 5412 5457 5409
11563 6 tri 1804 5316 3943
11564 6 tri 3943 5316 3944
11565 6 tri 3941 5291 3942
11566 6 tri 3941 5332 5291
11567 6 tri 5290 5340 5355
11568 6 tri 5373 1806 5391
11569 6 tri 5291 5332 1806
11570 6 tri 1809 1807 5387
11571 6 tri 1806 5332 5355
11572 6 tri 1806 5373 1805
11573 6 tri 5410 5417 5382
11574 6 tri 5427 1807 1809
11575 6 tri 1806 5355 1807
11576 6 tri 5510 5481 5468
11577 6 tri 5382 5339 5373
11578 6 tri 5468 5481 5440
11579 6 tri 5456 5497 5457
11580 6 tri 5427 5391 1807
11581 6 tri 5440 5410 5391
11582 6 tri 1810 5450 1809
11583 6 tri 5450 5468 5427
11584 6 tri 5468 5450 5490
11585 6 tri 5427 1809 5450
11586 6 tri 5427 5468 5440
11587 6 tri 5490 5508 5529
11588 6 tri 5490 5510 5468
11589 6 tri 5541 5492 5525
11590 6 tri 5490 5529 5510
11591 6 tri 5545 5578 5570
11592 6 tri 5529 5549 5510
11593 6 tri 5639 5626 5666
11594 6 tri 5570 5593 5549
11595 6 tri 5649 5697 5678
11596 6 tri 5525 5481 5510
11597 6 tri 5446 5440 5481
11598 6 tri 5541 5497 5492
11599 6 tri 5492 5481 5525
11600 6 tri 5481 5492 5446
11601 6 tri 5525 5566 5541
11602 6 tri 5487 5457 5497
11603 6 tri 5456 5446 5492
11604 6 tri 5596 5541 5566
11605 6 tri 5487 5522 5482
11606 6 tri 5635 5676 5649
11607 6 tri 5563 5522 5520
11608 6 tri 5541 5520 5497
11609 6 tri 5567 5563 5520
11610 6 tri 5616 5563 5567
11611 6 tri 5605 5611 5560
11612 6 tri 5520 5487 5497
11613 6 tri 5442 5398 5409
11614 6 tri 5457 5487 5442
11615 6 tri 5520 5522 5487
11616 6 tri 5442 5409 5457
11617 6 tri 5362 5311 5366
11618 6 tri 5365 5362 5409
11619 6 tri 5417 5446 5456
11620 6 tri 5366 5417 5412
11621 6 tri 5410 5446 5417
11622 6 tri 5497 5456 5492
11623 6 tri 5457 5412 5456
11624 6 tri 5339 5366 5316
11625 6 tri 5412 5409 5362
11626 6 tri 5366 5382 5417
11627 6 tri 5366 5339 5382
11628 6 tri 5305 5360 5359
11629 6 tri 5317 5365 5360
11630 6 tri 5412 5362 5366
11631 6 tri 5365 5312 5362
11632 6 tri 5360 5305 5317
11633 6 tri 5319 3948 5305
11634 6 tri 5395 5342 5354
11635 6 tri 5380 5331 5319
11636 6 tri 5301 5294 3951
11637 6 tri 5443 5395 5400
11638 6 tri 5301 5331 5354
11639 6 tri 5400 5395 5354
11640 6 tri 5415 5460 5430
11641 6 tri 5408 5359 5360
11642 6 tri 5408 5433 5380
11643 6 tri 5408 5380 5359
11644 6 tri 5400 5354 5380
11645 6 tri 5484 5443 5433
11646 6 tri 5400 5380 5433
11647 6 tri 5442 5441 5398
11648 6 tri 5482 5512 5465
11649 6 tri 5482 5465 5441
11650 6 tri 5512 5534 5484
11651 6 tri 5563 5560 5522
11652 6 tri 5583 5633 5581
11653 6 tri 5581 5528 5534
11654 6 tri 5581 5585 5535
11655 6 tri 5560 5534 5512
11656 6 tri 5560 5611 5583
11657 6 tri 5433 5443 5400
11658 6 tri 5486 5435 5443
11659 6 tri 5512 5484 5465
11660 6 tri 5534 5528 5484
11661 6 tri 5386 5415 5430
11662 6 tri 5435 5486 5485
11663 6 tri 5528 5535 5486
11664 6 tri 5511 5460 5485
11665 6 tri 5486 5535 5485
11666 6 tri 5528 5581 5535
11667 6 tri 5535 5511 5485
11668 6 tri 5561 5532 5511
11669 6 tri 5591 5532 5561
11670 6 tri 5556 5498 5532
11671 6 tri 5386 5430 5403
11672 6 tri 5460 5511 5479
11673 6 tri 5451 5479 5498
11674 6 tri 5430 5460 5479
11675 6 tri 5333 5297 5352
11676 6 tri 5297 3954 3953
11677 6 tri 5333 5386 5346
11678 6 tri 5352 5385 5415
11679 6 tri 5338 5385 5352
11680 6 tri 5342 5395 5385
11681 6 tri 5352 5415 5386
11682 6 tri 5385 5435 5415
11683 6 tri 5297 5338 5352
11684 6 tri 5338 5342 5385
11685 6 tri 5301 5354 5342
11686 6 tri 5386 5333 5352
11687 6 tri 5303 3955 5333
11688 6 tri 3954 5297 5333
11689 6 tri 5346 5303 5333
11690 6 tri 5297 3953 5338
11691 6 tri 5294 3952 3951
11692 6 tri 5338 3953 3952
11693 6 tri 5342 5294 5301
11694 6 tri 5342 5338 5294
11695 6 tri 5301 3950 5331
11696 6 tri 5301 3951 3950
11697 6 tri 3949 3948 5319
11698 6 tri 5331 3949 5319
11699 6 tri 3957 5327 3958
11700 6 tri 5364 5303 5346
11701 6 tri 3956 3955 5303
11702 6 tri 5313 5327 5370
11703 6 tri 5313 3958 5327
11704 6 tri 5306 3960 3959
11705 6 tri 5302 3960 5306
11706 6 tri 5351 5349 5306
11707 6 tri 5314 5299 3962
11708 6 tri 5361 5314 5302
11709 6 tri 5361 5348 5314
11710 6 tri 5302 3961 3960
11711 6 tri 5302 5314 3961
11712 6 tri 3964 3963 5321
11713 6 tri 3965 3964 5292
11714 6 tri 5416 5392 5374
11715 6 tri 5292 3964 5321
11716 6 tri 5242 5241 5392
11717 6 tri 5292 5321 5347
11718 6 tri 5392 5241 5347
11719 6 tri 5374 5392 5347
11720 6 tri 5438 5242 5392
11721 6 tri 5438 5243 5242
11722 6 tri 5495 5514 5476
11723 6 tri 5579 5547 5569
11724 6 tri 5476 5244 5243
11725 6 tri 5476 5514 5244
11726 6 tri 5244 5514 5245
11727 6 tri 5610 5247 5579
11728 6 tri 5245 5514 5547
11729 6 tri 5247 5246 5579
11730 6 tri 5547 5539 5569
11731 6 tri 5547 5514 5539
11732 6 tri 5590 5569 5548
11733 6 tri 5539 5519 5548
11734 6 tri 5548 5569 5539
11735 6 tri 5548 5574 5590
11736 6 tri 5438 5392 5416
11737 6 tri 5483 5531 5505
11738 6 tri 5628 5613 5670
11739 6 tri 5548 5505 5531
11740 6 tri 5461 5437 5475
11741 6 tri 5519 5539 5495
11742 6 tri 5475 5519 5495
11743 6 tri 5505 5548 5519
11744 6 tri 5476 5461 5495
11745 6 tri 5394 5411 5445
11746 6 tri 5438 5461 5476
11747 6 tri 5438 5416 5461
11748 6 tri 5437 5416 5394
11749 6 tri 5347 5321 5374
11750 6 tri 5394 5416 5374
11751 6 tri 5437 5461 5416
11752 6 tri 5374 5348 5394
11753 6 tri 5374 5321 5348
11754 6 tri 5445 5411 5444
11755 6 tri 5394 5361 5411
11756 6 tri 5505 5445 5483
11757 6 tri 5437 5394 5445
11758 6 tri 5461 5475 5495
11759 6 tri 5437 5445 5475
11760 6 tri 5313 5370 5351
11761 6 tri 5377 5327 5320
11762 6 tri 5451 5464 5420
11763 6 tri 5364 5377 5320
11764 6 tri 5306 5349 5302
11765 6 tri 5396 5411 5349
11766 6 tri 5406 5370 5423
11767 6 tri 5406 5351 5370
11768 6 tri 5386 5403 5346
11769 6 tri 5377 5370 5327
11770 6 tri 5403 5420 5364
11771 6 tri 5423 5370 5377
11772 6 tri 5479 5451 5430
11773 6 tri 5420 5377 5364
11774 6 tri 5377 5420 5423
11775 6 tri 5464 5498 5518
11776 6 tri 5403 5451 5420
11777 6 tri 5403 5430 5451
11778 6 tri 5454 5464 5488
11779 6 tri 5423 5420 5464
11780 6 tri 5454 5444 5406
11781 6 tri 5483 5445 5444
11782 6 tri 5423 5454 5406
11783 6 tri 5488 5502 5454
11784 6 tri 5538 5554 5502
11785 6 tri 5531 5483 5502
11786 6 tri 5592 5554 5538
11787 6 tri 5574 5548 5531
11788 6 tri 5613 5573 5556
11789 6 tri 5488 5464 5518
11790 6 tri 5488 5538 5502
11791 6 tri 5518 5556 5573
11792 6 tri 5538 5573 5592
11793 6 tri 5538 5518 5573
11794 6 tri 5592 5603 5554
11795 6 tri 5641 5667 5673
11796 6 tri 5613 5628 5573
11797 6 tri 5603 5574 5554
11798 6 tri 5628 5640 5592
11799 6 tri 5644 5618 5603
11800 6 tri 5684 5680 5640
11801 6 tri 5700 5742 5724
11802 6 tri 5684 5640 5628
11803 6 tri 5592 5573 5628
11804 6 tri 5670 5684 5628
11805 6 tri 5680 5644 5640
11806 6 tri 5712 5731 5670
11807 6 tri 5731 5765 5719
11808 6 tri 5766 5785 5731
11809 6 tri 5765 5795 5750
11810 6 tri 5765 5731 5785
11811 6 tri 5684 5670 5731
11812 6 tri 5712 5766 5731
11813 6 tri 5841 5878 5888
11814 6 tri 5719 5765 5750
11815 6 tri 5781 5803 5763
11816 6 tri 5811 5765 5785
11817 6 tri 5750 5709 5719
11818 6 tri 5719 5709 5680
11819 6 tri 5704 5739 5251
11820 6 tri 5684 5719 5680
11821 6 tri 5684 5731 5719
11822 6 tri 5750 5742 5709
11823 6 tri 5750 5795 5781
11824 6 tri 5724 5763 5739
11825 6 tri 5742 5750 5781
11826 6 tri 5742 5781 5763
11827 6 tri 5819 5843 5803
11828 6 tri 5831 5801 5803
11829 6 tri 5803 5801 5772
11830 6 tri 5831 5255 5254
11831 6 tri 5673 5724 5704
11832 6 tri 5724 5739 5704
11833 6 tri 5668 5673 5704
11834 6 tri 5742 5763 5724
11835 6 tri 5609 5641 5638
11836 6 tri 5704 5250 5668
11837 6 tri 5700 5673 5667
11838 6 tri 5668 5638 5673
11839 6 tri 5700 5667 5709
11840 6 tri 5641 5609 5618
11841 6 tri 5742 5700 5709
11842 6 tri 5724 5673 5700
11843 6 tri 5603 5618 5574
11844 6 tri 5609 5569 5590
11845 6 tri 5574 5618 5590
11846 6 tri 5644 5667 5618
11847 6 tri 5610 5579 5609
11848 6 tri 5246 5547 5579
11849 6 tri 5667 5641 5618
11850 6 tri 5673 5638 5641
11851 6 tri 5638 5610 5609
11852 6 tri 5248 5247 5610
11853 6 tri 5638 5249 5248
11854 6 tri 5668 5250 5249
11855 6 tri 5704 5251 5250
11856 6 tri 5739 5252 5251
11857 6 tri 5739 5772 5252
11858 6 tri 5772 5253 5252
11859 6 tri 5255 5831 5862
11860 6 tri 5892 5257 5256
11861 6 tri 5801 5254 5253
11862 6 tri 5801 5831 5254
11863 6 tri 6026 5262 5261
11864 6 tri 5957 5259 5258
11865 6 tri 5992 6027 6008
11866 6 tri 5996 5261 5260
11867 6 tri 5996 5260 5957
11868 6 tri 5944 5962 5980
11869 6 tri 6037 6008 6027
11870 6 tri 5996 6026 5261
11871 6 tri 6008 6026 5996
11872 6 tri 6037 6027 6061
11873 6 tri 5980 5962 5992
11874 6 tri 6113 6091 6116
11875 6 tri 5961 5933 5925
11876 6 tri 6028 6058 6027
11877 6 tri 5961 5992 5962
11878 6 tri 5944 5924 5912
11879 6 tri 5996 5980 6008
11880 6 tri 5962 5933 5961
11881 6 tri 6008 5980 5992
11882 6 tri 5944 5933 5962
11883 6 tri 5957 5980 5996
11884 6 tri 5957 5944 5980
11885 6 tri 5862 5879 5892
11886 6 tri 5933 5944 5912
11887 6 tri 5912 5924 5892
11888 6 tri 5944 5957 5924
11889 6 tri 5781 5819 5803
11890 6 tri 5819 5857 5843
11891 6 tri 5843 5862 5831
11892 6 tri 5843 5857 5879
11893 6 tri 5795 5819 5781
11894 6 tri 5819 5838 5857
11895 6 tri 5838 5856 5882
11896 6 tri 5896 5933 5912
11897 6 tri 5843 5879 5862
11898 6 tri 5857 5896 5879
11899 6 tri 5838 5882 5857
11900 6 tri 5882 5903 5925
11901 6 tri 5765 5811 5795
11902 6 tri 5878 5824 5869
11903 6 tri 5857 5882 5896
11904 6 tri 5856 5888 5903
11905 6 tri 5824 5841 5785
11906 6 tri 5856 5838 5811
11907 6 tri 5795 5838 5819
11908 6 tri 5795 5811 5838
11909 6 tri 5766 5824 5785
11910 6 tri 5966 5937 5975
11911 6 tri 5811 5841 5856
11912 6 tri 5811 5785 5841
11913 6 tri 5926 5888 5878
11914 6 tri 5841 5824 5878
11915 6 tri 5841 5888 5856
11916 6 tri 5878 5918 5926
11917 6 tri 5856 5903 5882
11918 6 tri 5888 5937 5903
11919 6 tri 5888 5926 5937
11920 6 tri 5958 5987 6002
11921 6 tri 5896 5925 5933
11922 6 tri 5903 5937 5925
11923 6 tri 5937 5966 5925
11924 6 tri 5995 5992 5961
11925 6 tri 5995 5966 6005
11926 6 tri 5961 5925 5966
11927 6 tri 5966 5995 5961
11928 6 tri 6028 6027 5995
11929 6 tri 5926 5975 5937
11930 6 tri 5958 5918 5949
11931 6 tri 5975 6005 5966
11932 6 tri 6021 6051 6005
11933 6 tri 6010 6024 5987
11934 6 tri 6076 6106 6065
11935 6 tri 5926 5958 5975
11936 6 tri 5987 6024 6002
11937 6 tri 5949 5977 5987
11938 6 tri 6035 6068 6046
11939 6 tri 5987 5977 6010
11940 6 tri 5950 5940 5917
11941 6 tri 6011 5984 5976
11942 6 tri 6011 6012 5984
11943 6 tri 5977 6012 6010
11944 6 tri 6011 6032 6012
11945 6 tri 6060 6032 6034
11946 6 tri 6059 6035 6032
11947 6 tri 6034 6023 952
11948 6 tri 6011 5976 5998
11949 6 tri 6001 963 6023
11950 6 tri 6031 6042 6066
11951 6 tri 979 969 5979
11952 6 tri 6013 6031 969
11953 6 tri 969 6031 963
11954 6 tri 6013 6022 6042
11955 6 tri 5954 5956 5979
11956 6 tri 5990 6022 6013
11957 6 tri 5956 985 979
11958 6 tri 6004 5968 5978
11959 6 tri 5945 5908 5935
11960 6 tri 5908 5874 5870
11961 6 tri 5970 5998 5976
11962 6 tri 6001 6023 5998
11963 6 tri 5922 5954 5935
11964 6 tri 5979 5970 5954
11965 6 tri 5872 5902 5901
11966 6 tri 999 5881 1006
11967 6 tri 979 985 5990
11968 6 tri 5930 5922 5902
11969 6 tri 5922 5901 5902
11970 6 tri 5872 5842 5875
11971 6 tri 5956 5930 985
11972 6 tri 5907 5875 5881
11973 6 tri 5956 5922 5930
11974 6 tri 5956 5954 5922
11975 6 tri 5976 5950 5945
11976 6 tri 5901 5922 5935
11977 6 tri 5945 5914 5908
11978 6 tri 5874 5836 5829
11979 6 tri 5950 5914 5945
11980 6 tri 5870 5829 5833
11981 6 tri 5970 5945 5935
11982 6 tri 5976 5984 5950
11983 6 tri 5977 5950 5984
11984 6 tri 5977 5949 5940
11985 6 tri 5918 5905 5949
11986 6 tri 5917 5914 5950
11987 6 tri 5975 5958 6002
11988 6 tri 5926 5918 5958
11989 6 tri 5884 5905 5847
11990 6 tri 5940 5949 5905
11991 6 tri 5905 5884 5940
11992 6 tri 5876 5874 5914
11993 6 tri 5905 5869 5847
11994 6 tri 5905 5918 5869
11995 6 tri 5876 5884 5839
11996 6 tri 5810 5824 5766
11997 6 tri 5839 5884 5847
11998 6 tri 5917 5940 5884
11999 6 tri 5728 5791 5760
12000 6 tri 5847 5869 5810
12001 6 tri 5797 5839 5791
12002 6 tri 5839 5847 5791
12003 6 tri 5707 5766 5712
12004 6 tri 5760 5810 5766
12005 6 tri 5791 5810 5760
12006 6 tri 5869 5824 5810
12007 6 tri 5671 5707 5653
12008 6 tri 5760 5766 5707
12009 6 tri 5632 5692 5671
12010 6 tri 5752 5791 5728
12011 6 tri 5622 5591 5561
12012 6 tri 5653 5613 5591
12013 6 tri 5585 5622 5561
12014 6 tri 5671 5653 5622
12015 6 tri 5632 5581 5633
12016 6 tri 5632 5622 5585
12017 6 tri 5535 5585 5561
12018 6 tri 5581 5632 5585
12019 6 tri 5633 5692 5632
12020 6 tri 5741 5752 5692
12021 6 tri 5692 5752 5728
12022 6 tri 5741 5790 5797
12023 6 tri 5650 5703 5658
12024 6 tri 5796 5833 5829
12025 6 tri 5703 5753 5710
12026 6 tri 5796 5829 5790
12027 6 tri 5560 5583 5534
12028 6 tri 5611 5633 5583
12029 6 tri 5658 5685 5633
12030 6 tri 5710 5741 5685
12031 6 tri 5563 5616 5605
12032 6 tri 5703 5710 5658
12033 6 tri 5697 5713 5743
12034 6 tri 5753 5755 5710
12035 6 tri 5725 5753 5703
12036 6 tri 5799 5833 5796
12037 6 tri 5753 5796 5755
12038 6 tri 5753 5769 5799
12039 6 tri 5753 5799 5796
12040 6 tri 5812 5787 5825
12041 6 tri 5769 5787 5812
12042 6 tri 5875 5902 5872
12043 6 tri 5741 5797 5752
12044 6 tri 5790 5829 5836
12045 6 tri 5876 5836 5874
12046 6 tri 5839 5797 5836
12047 6 tri 5914 5874 5908
12048 6 tri 5914 5917 5876
12049 6 tri 5884 5876 5917
12050 6 tri 5839 5836 5876
12051 6 tri 5908 5870 5901
12052 6 tri 5874 5829 5870
12053 6 tri 5812 5850 5842
12054 6 tri 5881 999 5907
12055 6 tri 5825 5787 5802
12056 6 tri 5678 5703 5650
12057 6 tri 5749 5775 5740
12058 6 tri 5806 1025 5830
12059 6 tri 5830 5802 5806
12060 6 tri 5767 5744 5774
12061 6 tri 5740 5744 5706
12062 6 tri 5774 5802 5767
12063 6 tri 5787 5767 5802
12064 6 tri 5787 5769 5743
12065 6 tri 5678 5725 5703
12066 6 tri 5769 5753 5725
12067 6 tri 5767 5743 5744
12068 6 tri 5767 5787 5743
12069 6 tri 5725 5678 5697
12070 6 tri 5596 5567 5541
12071 6 tri 5725 5697 5743
12072 6 tri 5678 5616 5649
12073 6 tri 5650 5616 5678
12074 6 tri 5650 5605 5616
12075 6 tri 5596 5649 5616
12076 6 tri 5596 5635 5649
12077 6 tri 5567 5596 5616
12078 6 tri 5626 5601 5647
12079 6 tri 5676 5635 5669
12080 6 tri 5596 5566 5607
12081 6 tri 5744 5713 5706
12082 6 tri 5697 5649 5676
12083 6 tri 5743 5713 5744
12084 6 tri 5697 5676 5713
12085 6 tri 5676 5669 5706
12086 6 tri 5635 5607 5639
12087 6 tri 5596 5607 5635
12088 6 tri 5566 5549 5593
12089 6 tri 5635 5639 5669
12090 6 tri 5607 5593 5639
12091 6 tri 5529 5570 5549
12092 6 tri 5529 5545 5570
12093 6 tri 5566 5593 5607
12094 6 tri 5570 5601 5593
12095 6 tri 5666 5626 5647
12096 6 tri 5639 5593 5626
12097 6 tri 5702 5666 5677
12098 6 tri 5669 5639 5666
12099 6 tri 1050 5702 5677
12100 6 tri 1048 1042 5722
12101 6 tri 5706 5722 5740
12102 6 tri 5702 1048 5722
12103 6 tri 5706 5694 5722
12104 6 tri 5706 5669 5694
12105 6 tri 1036 5775 5749
12106 6 tri 5775 5774 5740
12107 6 tri 1042 1036 5749
12108 6 tri 1033 5806 5775
12109 6 tri 5774 5806 5802
12110 6 tri 5845 5828 5864
12111 6 tri 5784 1036 1042
12112 6 tri 1033 5775 1036
12113 6 tri 5784 5808 1036
12114 6 tri 5784 5817 5808
12115 6 tri 5808 5828 1033
12116 6 tri 5840 5871 5864
12117 6 tri 5891 5864 5897
12118 6 tri 5828 5840 5864
12119 6 tri 5891 5897 5923
12120 6 tri 5864 5871 5897
12121 6 tri 1018 5868 5886
12122 6 tri 5845 5864 5868
12123 6 tri 5886 5891 5919
12124 6 tri 5868 5864 5891
12125 6 tri 1033 1025 5806
12126 6 tri 1033 5828 5845
12127 6 tri 1025 5845 5868
12128 6 tri 1025 1033 5845
12129 6 tri 5855 5825 5830
12130 6 tri 5812 5799 5769
12131 6 tri 5802 5830 5825
12132 6 tri 1025 5868 1018
12133 6 tri 5850 5812 5825
12134 6 tri 5842 5799 5812
12135 6 tri 5881 5850 5855
12136 6 tri 5875 5842 5850
12137 6 tri 5850 5881 5875
12138 6 tri 5972 994 5948
12139 6 tri 1014 1006 5881
12140 6 tri 1014 5886 5910
12141 6 tri 5855 1018 1014
12142 6 tri 5830 1025 1018
12143 6 tri 5881 5855 1014
12144 6 tri 5850 5825 5855
12145 6 tri 5948 999 5929
12146 6 tri 5968 5943 5978
12147 6 tri 1006 5929 999
12148 6 tri 5910 5886 5919
12149 6 tri 994 5907 999
12150 6 tri 5902 5875 5907
12151 6 tri 5930 994 985
12152 6 tri 5930 5907 994
12153 6 tri 5943 5968 5929
12154 6 tri 5972 985 994
12155 6 tri 985 5972 5990
12156 6 tri 5988 5978 5951
12157 6 tri 5948 5968 5972
12158 6 tri 5948 5929 5968
12159 6 tri 6022 5994 6029
12160 6 tri 6022 5990 5994
12161 6 tri 5994 6004 6029
12162 6 tri 5994 5968 6004
12163 6 tri 6050 6017 6025
12164 6 tri 6004 5978 6017
12165 6 tri 1006 5910 5929
12166 6 tri 1006 1014 5910
12167 6 tri 5988 5951 5959
12168 6 tri 5978 5943 5951
12169 6 tri 5919 5923 5951
12170 6 tri 5897 5932 5923
12171 6 tri 5999 5988 5959
12172 6 tri 6017 5978 5988
12173 6 tri 5967 5999 5959
12174 6 tri 6040 6077 6062
12175 6 tri 5988 6025 6017
12176 6 tri 5999 6040 6025
12177 6 tri 6103 6066 6082
12178 6 tri 6022 6029 6057
12179 6 tri 6029 6064 6057
12180 6 tri 6203 6237 6252
12181 6 tri 6082 6093 6123
12182 6 tri 6062 6025 6040
12183 6 tri 6066 6042 6057
12184 6 tri 6057 6093 6082
12185 6 tri 6070 6083 6094
12186 6 tri 6054 6031 6066
12187 6 tri 6013 6042 6031
12188 6 tri 6022 6057 6042
12189 6 tri 6083 6066 6103
12190 6 tri 6083 6070 6054
12191 6 tri 963 952 6023
12192 6 tri 963 6031 6054
12193 6 tri 6083 6054 6066
12194 6 tri 6070 952 6054
12195 6 tri 6070 945 952
12196 6 tri 6032 6011 6034
12197 6 tri 6078 6059 6060
12198 6 tri 6068 6035 6059
12199 6 tri 925 6104 6078
12200 6 tri 6059 6032 6060
12201 6 tri 945 935 6060
12202 6 tri 925 6111 6134
12203 6 tri 935 945 6094
12204 6 tri 6060 6034 945
12205 6 tri 6111 935 6094
12206 6 tri 6078 6060 935
12207 6 tri 6083 6115 6094
12208 6 tri 920 910 6119
12209 6 tri 935 925 6078
12210 6 tri 6136 6160 6149
12211 6 tri 6111 925 935
12212 6 tri 6134 6168 6150
12213 6 tri 925 920 6104
12214 6 tri 6136 896 6160
12215 6 tri 925 6134 920
12216 6 tri 6168 6193 6176
12217 6 tri 920 6134 6150
12218 6 tri 6146 6174 6168
12219 6 tri 6111 6146 6134
12220 6 tri 6122 6094 6115
12221 6 tri 6146 6147 6174
12222 6 tri 6146 6111 6122
12223 6 tri 6183 6155 6188
12224 6 tri 6147 6115 6155
12225 6 tri 6122 6115 6147
12226 6 tri 6083 6103 6115
12227 6 tri 6146 6122 6147
12228 6 tri 6111 6094 6122
12229 6 tri 6129 6123 6159
12230 6 tri 6204 6203 6252
12231 6 tri 6115 6129 6155
12232 6 tri 6103 6123 6129
12233 6 tri 6129 6159 6155
12234 6 tri 6123 6161 6159
12235 6 tri 6093 6124 6123
12236 6 tri 6166 6124 6128
12237 6 tri 6166 6204 6161
12238 6 tri 6239 6224 6195
12239 6 tri 6224 6216 6188
12240 6 tri 6174 6147 6183
12241 6 tri 6159 6188 6155
12242 6 tri 6159 6195 6188
12243 6 tri 6277 6242 6249
12244 6 tri 6190 6206 6225
12245 6 tri 6261 6295 6249
12246 6 tri 6319 6342 6301
12247 6 tri 6188 6216 6183
12248 6 tri 6249 6242 6216
12249 6 tri 6287 6261 6239
12250 6 tri 6287 6328 6295
12251 6 tri 6295 6328 6319
12252 6 tri 6287 6300 6336
12253 6 tri 6344 6395 6379
12254 6 tri 6373 6394 6355
12255 6 tri 6379 6373 6336
12256 6 tri 6379 6418 6373
12257 6 tri 6373 6418 6394
12258 6 tri 6463 6499 6465
12259 6 tri 6328 6355 6319
12260 6 tri 6328 6373 6355
12261 6 tri 6394 6438 6421
12262 6 tri 6418 6463 6438
12263 6 tri 6277 6295 6319
12264 6 tri 6261 6287 6295
12265 6 tri 6355 6342 6319
12266 6 tri 6354 6386 6385
12267 6 tri 6290 6301 6326
12268 6 tri 6277 6319 6301
12269 6 tri 6298 6282 6315
12270 6 tri 6301 6342 6326
12271 6 tri 6342 6363 6326
12272 6 tri 6376 6421 6404
12273 6 tri 6376 6404 6363
12274 6 tri 6421 6450 6404
12275 6 tri 6420 6386 6404
12276 6 tri 6354 6340 6324
12277 6 tri 6450 6420 6404
12278 6 tri 6420 6443 6411
12279 6 tri 6348 6315 6326
12280 6 tri 6263 6235 6228
12281 6 tri 6315 6348 6324
12282 6 tri 6326 6363 6348
12283 6 tri 6263 6266 6235
12284 6 tri 6248 6225 6235
12285 6 tri 6282 6266 6290
12286 6 tri 6248 6235 6266
12287 6 tri 6209 6228 6193
12288 6 tri 6242 6263 6228
12289 6 tri 6277 6263 6242
12290 6 tri 6290 6266 6263
12291 6 tri 6174 6193 6168
12292 6 tri 6228 6235 6206
12293 6 tri 6183 6209 6174
12294 6 tri 6216 6242 6209
12295 6 tri 6168 6176 6150
12296 6 tri 6190 6225 6211
12297 6 tri 6193 6206 6176
12298 6 tri 6193 6228 6206
12299 6 tri 6231 6264 6251
12300 6 tri 6248 6282 6264
12301 6 tri 6189 6219 6201
12302 6 tri 6284 6270 6294
12303 6 tri 6294 6270 6281
12304 6 tri 6294 6307 6284
12305 6 tri 6251 6281 6270
12306 6 tri 6264 6298 6281
12307 6 tri 6322 6294 6312
12308 6 tri 6286 6316 6308
12309 6 tri 6315 6282 6290
12310 6 tri 6298 6264 6282
12311 6 tri 6298 6315 6324
12312 6 tri 6290 6326 6315
12313 6 tri 6386 6354 6348
12314 6 tri 6369 6340 6354
12315 6 tri 6398 6385 6411
12316 6 tri 6369 6354 6385
12317 6 tri 6398 6411 6431
12318 6 tri 6385 6386 6411
12319 6 tri 6411 6443 6431
12320 6 tri 6457 6488 6443
12321 6 tri 6398 6382 6369
12322 6 tri 6427 6414 6449
12323 6 tri 6385 6398 6369
12324 6 tri 6431 6412 6398
12325 6 tri 6369 6353 6340
12326 6 tri 6335 6307 6322
12327 6 tri 6322 6353 6335
12328 6 tri 6369 6382 6353
12329 6 tri 6322 6307 6294
12330 6 tri 6286 6308 6275
12331 6 tri 6335 6360 6341
12332 6 tri 6382 6412 6390
12333 6 tri 6398 6412 6382
12334 6 tri 6547 6507 6526
12335 6 tri 6360 6390 6366
12336 6 tri 6436 6471 6449
12337 6 tri 6390 6423 6399
12338 6 tri 6412 6431 6446
12339 6 tri 6335 6316 6307
12340 6 tri 6335 6341 6316
12341 6 tri 6366 6390 6399
12342 6 tri 6360 6382 6390
12343 6 tri 6262 853 6284
12344 6 tri 6274 6293 6313
12345 6 tri 6316 6286 6307
12346 6 tri 6262 6275 6245
12347 6 tri 853 6262 6241
12348 6 tri 858 6270 853
12349 6 tri 6286 6284 6307
12350 6 tri 6286 6262 6284
12351 6 tri 858 6241 6219
12352 6 tri 6218 6194 6179
12353 6 tri 6219 6241 6229
12354 6 tri 858 853 6241
12355 6 tri 6241 6262 6229
12356 6 tri 6247 6243 6221
12357 6 tri 6275 6262 6286
12358 6 tri 6245 6229 6262
12359 6 tri 6245 6218 6229
12360 6 tri 6218 6247 6221
12361 6 tri 6156 6189 6169
12362 6 tri 6194 6163 6179
12363 6 tri 6169 6201 6179
12364 6 tri 6219 6229 6201
12365 6 tri 6141 6169 6179
12366 6 tri 6156 6175 6189
12367 6 tri 6181 6175 6149
12368 6 tri 6081 6100 6063
12369 6 tri 6169 6189 6201
12370 6 tri 6175 6202 6189
12371 6 tri 6219 6202 872
12372 6 tri 6219 6189 6202
12373 6 tri 6211 891 6190
12374 6 tri 881 6202 6181
12375 6 tri 872 881 6231
12376 6 tri 872 6202 881
12377 6 tri 896 6190 891
12378 6 tri 6176 6206 6190
12379 6 tri 6231 6211 6225
12380 6 tri 881 891 6211
12381 6 tri 6150 910 920
12382 6 tri 6150 6176 910
12383 6 tri 891 6160 896
12384 6 tri 6175 6156 6149
12385 6 tri 6181 6149 6160
12386 6 tri 6156 6137 6132
12387 6 tri 891 6181 6160
12388 6 tri 891 881 6181
12389 6 tri 6084 6105 6068
12390 6 tri 6136 910 896
12391 6 tri 6081 6117 6100
12392 6 tri 6105 6119 6136
12393 6 tri 6084 6119 6105
12394 6 tri 6104 920 6119
12395 6 tri 6105 6136 6117
12396 6 tri 6119 910 6136
12397 6 tri 6012 6035 6010
12398 6 tri 6012 6032 6035
12399 6 tri 6078 6084 6059
12400 6 tri 6104 6119 6084
12401 6 tri 6010 6046 6024
12402 6 tri 6010 6035 6046
12403 6 tri 6105 6081 6068
12404 6 tri 6105 6117 6081
12405 6 tri 6046 6063 6024
12406 6 tri 6100 6110 6076
12407 6 tri 6039 6076 6065
12408 6 tri 6063 6100 6076
12409 6 tri 6117 6132 6100
12410 6 tri 6156 6169 6137
12411 6 tri 6100 6132 6110
12412 6 tri 6117 6149 6132
12413 6 tri 6110 6137 6106
12414 6 tri 6110 6132 6137
12415 6 tri 6137 6141 6106
12416 6 tri 6137 6169 6141
12417 6 tri 6002 6039 6021
12418 6 tri 6002 6024 6039
12419 6 tri 6039 6065 6021
12420 6 tri 6096 6086 6051
12421 6 tri 6005 6051 6028
12422 6 tri 6065 6096 6051
12423 6 tri 6090 6058 6086
12424 6 tri 6090 6061 6058
12425 6 tri 6067 6037 6061
12426 6 tri 6027 6058 6061
12427 6 tri 6144 6116 6148
12428 6 tri 6090 6086 6118
12429 6 tri 6096 6125 6086
12430 6 tri 6200 6214 6226
12431 6 tri 6106 6096 6065
12432 6 tri 6106 6141 6096
12433 6 tri 6086 6125 6118
12434 6 tri 6096 6141 6125
12435 6 tri 6125 6153 6118
12436 6 tri 6163 6194 6187
12437 6 tri 6163 6187 6153
12438 6 tri 6194 6221 6187
12439 6 tri 6214 6221 6243
12440 6 tri 6194 6218 6221
12441 6 tri 6275 6247 6245
12442 6 tri 6274 6278 6243
12443 6 tri 6214 6250 6226
12444 6 tri 6278 6310 6288
12445 6 tri 6255 6240 6267
12446 6 tri 6250 6278 6267
12447 6 tri 6170 6148 6182
12448 6 tri 6116 6118 6148
12449 6 tri 6200 6182 6214
12450 6 tri 6148 6153 6182
12451 6 tri 6240 6223 6226
12452 6 tri 6192 6170 6200
12453 6 tri 6255 6223 6240
12454 6 tri 6184 6165 6192
12455 6 tri 6250 6240 6226
12456 6 tri 6279 6291 6269
12457 6 tri 6238 6255 6269
12458 6 tri 6238 6223 6255
12459 6 tri 6223 6192 6200
12460 6 tri 6223 6238 6213
12461 6 tri 6184 6213 5268
12462 6 tri 6192 6223 6213
12463 6 tri 6140 6113 6144
12464 6 tri 6085 6056 6067
12465 6 tri 5266 6140 6165
12466 6 tri 6140 6144 6165
12467 6 tri 6113 6116 6144
12468 6 tri 6165 6170 6192
12469 6 tri 6144 6148 6170
12470 6 tri 6091 6067 6061
12471 6 tri 6026 6008 6037
12472 6 tri 6116 6091 6090
12473 6 tri 6113 6085 6091
12474 6 tri 5263 6056 6085
12475 6 tri 6026 6037 6056
12476 6 tri 6085 6067 6091
12477 6 tri 6056 6037 6067
12478 6 tri 6056 5263 5262
12479 6 tri 6140 6112 6113
12480 6 tri 6140 5266 5265
12481 6 tri 6140 5265 6112
12482 6 tri 5268 5267 6184
12483 6 tri 6213 6184 6192
12484 6 tri 5267 6165 6184
12485 6 tri 6238 5269 6213
12486 6 tri 6213 5269 5268
12487 6 tri 6238 6269 5270
12488 6 tri 6291 5271 6269
12489 6 tri 6269 5271 5270
12490 6 tri 6356 6365 6383
12491 6 tri 5274 6362 5275
12492 6 tri 5277 5276 6408
12493 6 tri 6428 5278 5277
12494 6 tri 6448 5278 6428
12495 6 tri 6402 6408 6389
12496 6 tri 6428 5277 6408
12497 6 tri 6402 6426 6408
12498 6 tri 6453 6448 6426
12499 6 tri 6387 6365 6368
12500 6 tri 6343 5274 5273
12501 6 tri 6365 6387 6383
12502 6 tri 6427 6396 6414
12503 6 tri 6389 5276 5275
12504 6 tri 6362 6389 5275
12505 6 tri 6383 6402 6389
12506 6 tri 5273 6318 6343
12507 6 tri 6383 6362 6356
12508 6 tri 6383 6389 6362
12509 6 tri 6306 6291 6279
12510 6 tri 6318 5272 6291
12511 6 tri 6306 6331 6318
12512 6 tri 6362 5274 6343
12513 6 tri 6267 6279 6255
12514 6 tri 6288 6310 6320
12515 6 tri 6331 6306 6320
12516 6 tri 6318 6291 6306
12517 6 tri 6365 6356 6349
12518 6 tri 6343 6318 6331
12519 6 tri 6343 6356 6362
12520 6 tri 6331 6349 6356
12521 6 tri 6331 6320 6349
12522 6 tri 6306 6279 6288
12523 6 tri 6313 6338 6310
12524 6 tri 6350 6368 6338
12525 6 tri 6243 6278 6250
12526 6 tri 6243 6247 6274
12527 6 tri 6306 6288 6320
12528 6 tri 6267 6278 6288
12529 6 tri 6275 6274 6247
12530 6 tri 6275 6308 6293
12531 6 tri 6275 6293 6274
12532 6 tri 6308 6341 6329
12533 6 tri 6278 6313 6310
12534 6 tri 6293 6308 6329
12535 6 tri 6366 6329 6341
12536 6 tri 6350 6338 6313
12537 6 tri 6366 6350 6329
12538 6 tri 6366 6399 6380
12539 6 tri 6366 6380 6350
12540 6 tri 6399 6414 6380
12541 6 tri 6383 6387 6402
12542 6 tri 6368 6380 6396
12543 6 tri 6368 6396 6387
12544 6 tri 6380 6414 6396
12545 6 tri 6402 6410 6426
12546 6 tri 6402 6387 6410
12547 6 tri 6455 6434 6427
12548 6 tri 6453 6426 6434
12549 6 tri 6455 6427 6449
12550 6 tri 6434 6410 6427
12551 6 tri 6459 6436 6423
12552 6 tri 6449 6414 6436
12553 6 tri 6455 6478 6476
12554 6 tri 6589 6570 6616
12555 6 tri 6478 6455 6449
12556 6 tri 6476 6453 6455
12557 6 tri 6476 6500 6496
12558 6 tri 6478 6471 6501
12559 6 tri 6500 6528 6518
12560 6 tri 6535 6539 6564
12561 6 tri 6500 6535 6528
12562 6 tri 6500 6478 6510
12563 6 tri 6510 6501 6539
12564 6 tri 6501 6471 6494
12565 6 tri 6500 6510 6535
12566 6 tri 6478 6501 6510
12567 6 tri 6510 6539 6535
12568 6 tri 6501 6527 6539
12569 6 tri 6535 6564 6562
12570 6 tri 6539 6570 6589
12571 6 tri 6626 6589 6616
12572 6 tri 6564 6539 6589
12573 6 tri 6638 6626 6672
12574 6 tri 6626 6595 6589
12575 6 tri 6618 6638 6654
12576 6 tri 6672 6720 6679
12577 6 tri 6651 6618 6654
12578 6 tri 6727 6720 6769
12579 6 tri 6562 6595 6586
12580 6 tri 6564 6589 6595
12581 6 tri 6651 6617 6618
12582 6 tri 6586 6595 6618
12583 6 tri 6599 6579 6617
12584 6 tri 6567 6540 6550
12585 6 tri 6599 6617 6633
12586 6 tri 6579 6586 6617
12587 6 tri 6695 6717 6675
12588 6 tri 6675 6633 6651
12589 6 tri 5283 5282 6540
12590 6 tri 6654 6695 6651
12591 6 tri 5284 5283 6567
12592 6 tri 5282 6512 6540
12593 6 tri 5285 6599 6633
12594 6 tri 5285 5284 6599
12595 6 tri 5280 6491 5281
12596 6 tri 6518 6528 6550
12597 6 tri 5283 6540 6567
12598 6 tri 6512 6518 6540
12599 6 tri 6496 6518 6512
12600 6 tri 6496 6500 6518
12601 6 tri 6567 6550 6579
12602 6 tri 6540 6518 6550
12603 6 tri 6473 6448 6453
12604 6 tri 6468 5279 6448
12605 6 tri 6448 6473 6468
12606 6 tri 6453 6476 6473
12607 6 tri 6468 6491 5280
12608 6 tri 5281 6491 6512
12609 6 tri 6468 6473 6491
12610 6 tri 5285 6633 5286
12611 6 tri 6599 5284 6567
12612 6 tri 5287 5286 6675
12613 6 tri 5287 6717 5288
12614 6 tri 6675 6651 6695
12615 6 tri 6717 6771 5288
12616 6 tri 6717 6695 6749
12617 6 tri 6828 5289 6771
12618 6 tri 6771 6749 6828
12619 6 tri 6696 6695 6654
12620 6 tri 6749 6771 6717
12621 6 tri 6696 6739 6695
12622 6 tri 6827 6828 6749
12623 6 tri 6638 6679 6654
12624 6 tri 6773 6825 6826
12625 6 tri 6773 6739 6696
12626 6 tri 6827 6749 6739
12627 6 tri 6827 6739 6826
12628 6 tri 6769 6825 6773
12629 6 tri 6826 6739 6773
12630 6 tri 6727 6769 6773
12631 6 tri 6654 6679 6696
12632 6 tri 6638 6672 6679
12633 6 tri 6696 6727 6773
12634 6 tri 6679 6720 6727
12635 6 tri 6672 6708 6720
12636 6 tri 6761 6769 6720
12637 6 tri 6761 6823 6824
12638 6 tri 6746 6823 6761
12639 6 tri 6761 6824 6769
12640 6 tri 6737 6816 6743
12641 6 tri 6737 6758 6815
12642 6 tri 6816 6817 6743
12643 6 tri 6817 6750 6743
12644 6 tri 6817 6818 6750
12645 6 tri 6684 6732 6718
12646 6 tri 6751 6820 6821
12647 6 tri 6766 6819 6820
12648 6 tri 6732 6819 6766
12649 6 tri 6746 6822 6823
12650 6 tri 6746 6742 6822
12651 6 tri 6694 6708 6660
12652 6 tri 6746 6761 6708
12653 6 tri 6647 6694 6660
12654 6 tri 6697 6742 6694
12655 6 tri 6751 6742 6697
12656 6 tri 6751 6821 6742
12657 6 tri 6684 6642 6643
12658 6 tri 6718 6697 6667
12659 6 tri 6694 6647 6697
12660 6 tri 6615 6642 6667
12661 6 tri 6527 6558 6570
12662 6 tri 6615 6667 6647
12663 6 tri 6616 6647 6660
12664 6 tri 6601 6615 6647
12665 6 tri 6483 6525 6494
12666 6 tri 6570 6539 6527
12667 6 tri 6574 6558 6525
12668 6 tri 6601 6570 6558
12669 6 tri 6412 6446 6423
12670 6 tri 6494 6527 6501
12671 6 tri 6446 6483 6459
12672 6 tri 6494 6525 6527
12673 6 tri 6423 6446 6459
12674 6 tri 6431 6469 6446
12675 6 tri 6459 6483 6494
12676 6 tri 6446 6469 6483
12677 6 tri 6527 6525 6558
12678 6 tri 6483 6507 6525
12679 6 tri 6601 6574 6615
12680 6 tri 6525 6507 6547
12681 6 tri 6642 6597 6643
12682 6 tri 6526 6488 6523
12683 6 tri 6615 6597 6642
12684 6 tri 6574 6547 6597
12685 6 tri 6443 6469 6431
12686 6 tri 6443 6488 6469
12687 6 tri 6597 6547 6568
12688 6 tri 6574 6525 6547
12689 6 tri 6565 6594 6559
12690 6 tri 6559 6526 6523
12691 6 tri 6547 6526 6568
12692 6 tri 6507 6488 6526
12693 6 tri 6526 6559 6568
12694 6 tri 6523 6529 6565
12695 6 tri 6607 6594 6640
12696 6 tri 6576 6529 6538
12697 6 tri 6607 6640 6656
12698 6 tri 6594 6606 6640
12699 6 tri 6607 6656 6643
12700 6 tri 6687 6737 6743
12701 6 tri 6597 6607 6643
12702 6 tri 6568 6559 6607
12703 6 tri 6656 6690 6643
12704 6 tri 6690 6732 6684
12705 6 tri 6732 6690 6750
12706 6 tri 6684 6643 6690
12707 6 tri 6818 6732 6750
12708 6 tri 6766 6718 6732
12709 6 tri 6640 6687 6656
12710 6 tri 6640 6650 6687
12711 6 tri 6743 6709 6687
12712 6 tri 6743 6750 6709
12713 6 tri 6754 6707 6705
12714 6 tri 6698 6687 6650
12715 6 tri 6752 6705 6700
12716 6 tri 6606 6650 6640
12717 6 tri 6756 6752 6700
12718 6 tri 6611 6655 6612
12719 6 tri 6705 6707 6665
12720 6 tri 6612 6655 6659
12721 6 tri 6713 6756 6700
12722 6 tri 6705 6665 6659
12723 6 tri 6707 6650 6665
12724 6 tri 6758 6698 6707
12725 6 tri 6737 6687 6698
12726 6 tri 6576 6606 6565
12727 6 tri 6623 6650 6606
12728 6 tri 6576 6623 6606
12729 6 tri 6659 6665 6623
12730 6 tri 6420 6450 6457
12731 6 tri 6421 6438 6465
12732 6 tri 6594 6565 6606
12733 6 tri 6559 6523 6565
12734 6 tri 6450 6490 6489
12735 6 tri 6450 6421 6465
12736 6 tri 6490 6538 6529
12737 6 tri 6572 6581 6611
12738 6 tri 6529 6576 6565
12739 6 tri 6572 6543 6581
12740 6 tri 6538 6572 6576
12741 6 tri 6655 6713 6700
12742 6 tri 6576 6572 6612
12743 6 tri 6581 6620 6634
12744 6 tri 6490 6465 6509
12745 6 tri 6490 6450 6465
12746 6 tri 6612 6572 6611
12747 6 tri 6538 6543 6572
12748 6 tri 6429 6470 6418
12749 6 tri 6470 6485 6514
12750 6 tri 6560 6593 6548
12751 6 tri 6541 6543 6499
12752 6 tri 6548 6593 6582
12753 6 tri 6581 6543 6541
12754 6 tri 6506 6548 6541
12755 6 tri 6631 6673 6620
12756 6 tri 6582 6620 6581
12757 6 tri 6741 6693 6712
12758 6 tri 6582 6631 6620
12759 6 tri 6608 6560 6578
12760 6 tri 6581 6634 6611
12761 6 tri 6620 6673 6634
12762 6 tri 6659 6655 6700
12763 6 tri 6611 6634 6655
12764 6 tri 6655 6677 6713
12765 6 tri 6634 6673 6677
12766 6 tri 6677 6722 6713
12767 6 tri 6673 6681 6728
12768 6 tri 6631 6681 6673
12769 6 tri 6631 6644 6681
12770 6 tri 6808 6777 6728
12771 6 tri 6722 6673 6728
12772 6 tri 6810 6777 6809
12773 6 tri 6722 6728 6777
12774 6 tri 6810 6760 6777
12775 6 tri 6811 6812 6756
12776 6 tri 6713 6722 6760
12777 6 tri 6752 6756 6812
12778 6 tri 6713 6760 6756
12779 6 tri 6812 6813 6752
12780 6 tri 6752 6754 6705
12781 6 tri 6698 6758 6737
12782 6 tri 6754 6813 6814
12783 6 tri 6754 6814 6758
12784 6 tri 6737 6815 6816
12785 6 tri 6758 6814 6815
12786 6 tri 6756 6760 6811
12787 6 tri 6772 6794 6775
12788 6 tri 6702 6689 6738
12789 6 tri 6767 6723 6699
12790 6 tri 6772 6775 6724
12791 6 tri 6794 6795 6775
12792 6 tri 6748 6721 6775
12793 6 tri 6678 6671 6723
12794 6 tri 6723 6767 6772
12795 6 tri 6736 6791 6792
12796 6 tri 6678 6723 6724
12797 6 tri 6767 6792 6793
12798 6 tri 6772 6793 6794
12799 6 tri 6772 6767 6793
12800 6 tri 6745 6791 6736
12801 6 tri 6767 6736 6792
12802 6 tri 6757 6770 6787
12803 6 tri 6764 6790 6745
12804 6 tri 6778 6770 6726
12805 6 tri 6786 6787 6770
12806 6 tri 6785 6786 6778
12807 6 tri 6664 6704 6716
12808 6 tri 6757 6788 6753
12809 6 tri 6704 6764 6716
12810 6 tri 6753 6789 6764
12811 6 tri 6701 6704 6662
12812 6 tri 6753 6764 6704
12813 6 tri 6714 6701 6663
12814 6 tri 6757 6753 6701
12815 6 tri 6669 6714 6663
12816 6 tri 6726 6770 6714
12817 6 tri 6549 6573 6590
12818 6 tri 6641 6669 6622
12819 6 tri 6622 6669 6663
12820 6 tri 6641 6683 6669
12821 6 tri 6664 6629 6621
12822 6 tri 6664 6716 6686
12823 6 tri 6663 6662 6624
12824 6 tri 6704 6664 6662
12825 6 tri 6699 6648 6686
12826 6 tri 6671 6627 6648
12827 6 tri 6629 6686 6648
12828 6 tri 6716 6745 6686
12829 6 tri 6648 6699 6671
12830 6 tri 6686 6736 6699
12831 6 tri 6724 6723 6772
12832 6 tri 6671 6699 6723
12833 6 tri 6721 6674 6724
12834 6 tri 6636 6627 6671
12835 6 tri 6689 6721 6748
12836 6 tri 6724 6775 6721
12837 6 tri 6674 6636 6678
12838 6 tri 6639 6584 6603
12839 6 tri 6636 6674 6639
12840 6 tri 6678 6724 6674
12841 6 tri 6614 6577 6575
12842 6 tri 6639 6674 6689
12843 6 tri 6646 6637 6685
12844 6 tri 6602 6577 6637
12845 6 tri 6682 6657 6710
12846 6 tri 6605 6602 6646
12847 6 tri 6692 6657 6646
12848 6 tri 6682 6632 6657
12849 6 tri 6657 6692 6710
12850 6 tri 6646 6685 6692
12851 6 tri 6653 6689 6702
12852 6 tri 6653 6639 6689
12853 6 tri 6702 6715 6666
12854 6 tri 6702 6738 6759
12855 6 tri 6715 6759 6747
12856 6 tri 6738 6796 6797
12857 6 tri 6759 6798 6747
12858 6 tri 6759 6738 6797
12859 6 tri 6759 6797 6798
12860 6 tri 6747 6799 6733
12861 6 tri 6762 6744 6801
12862 6 tri 6692 6733 6744
12863 6 tri 6798 6799 6747
12864 6 tri 6710 6762 6731
12865 6 tri 6710 6744 6762
12866 6 tri 6802 6803 6731
12867 6 tri 6804 6730 6763
12868 6 tri 6731 6762 6802
12869 6 tri 6763 6803 6804
12870 6 tri 6763 6731 6803
12871 6 tri 6804 6805 6730
12872 6 tri 6808 6728 6735
12873 6 tri 6807 6741 6806
12874 6 tri 6735 6728 6681
12875 6 tri 6806 6765 6805
12876 6 tri 6741 6712 6765
12877 6 tri 6630 6680 6661
12878 6 tri 6712 6693 6661
12879 6 tri 6807 6735 6741
12880 6 tri 6807 6808 6735
12881 6 tri 6712 6680 6730
12882 6 tri 6649 6630 6604
12883 6 tri 6730 6706 6763
12884 6 tri 6680 6649 6706
12885 6 tri 6587 6632 6604
12886 6 tri 6605 6657 6632
12887 6 tri 6630 6649 6680
12888 6 tri 6632 6682 6649
12889 6 tri 6644 6608 6661
12890 6 tri 6604 6632 6649
12891 6 tri 6693 6644 6661
12892 6 tri 6631 6582 6593
12893 6 tri 6644 6593 6608
12894 6 tri 6582 6541 6548
12895 6 tri 6514 6548 6506
12896 6 tri 6532 6552 6578
12897 6 tri 6514 6532 6560
12898 6 tri 6608 6630 6661
12899 6 tri 6548 6514 6560
12900 6 tri 6485 6464 6508
12901 6 tri 6532 6578 6560
12902 6 tri 6587 6605 6632
12903 6 tri 6578 6604 6630
12904 6 tri 6578 6552 6604
12905 6 tri 6560 6608 6593
12906 6 tri 6578 6630 6608
12907 6 tri 6502 6462 6479
12908 6 tri 6613 6584 6639
12909 6 tri 6552 6587 6604
12910 6 tri 6563 6533 6577
12911 6 tri 6533 6536 6577
12912 6 tri 6545 6584 6575
12913 6 tri 6577 6614 6637
12914 6 tri 6575 6584 6613
12915 6 tri 6602 6563 6577
12916 6 tri 6462 6493 6447
12917 6 tri 6513 6493 6533
12918 6 tri 6502 6545 6536
12919 6 tri 6552 6553 6587
12920 6 tri 6444 6485 6470
12921 6 tri 6605 6563 6602
12922 6 tri 6553 6513 6563
12923 6 tri 6524 6484 6513
12924 6 tri 6533 6563 6513
12925 6 tri 6484 6472 6513
12926 6 tri 6462 6416 6439
12927 6 tri 6533 6493 6536
12928 6 tri 6472 6425 6447
12929 6 tri 6392 6425 6442
12930 6 tri 6397 6416 6447
12931 6 tri 6472 6447 6493
12932 6 tri 6425 6397 6447
12933 6 tri 6395 6364 6419
12934 6 tri 6314 6276 6333
12935 6 tri 6392 6442 6419
12936 6 tri 6425 6472 6442
12937 6 tri 6484 6464 6442
12938 6 tri 6508 6532 6485
12939 6 tri 6472 6484 6442
12940 6 tri 6513 6553 6524
12941 6 tri 6484 6508 6464
12942 6 tri 6552 6532 6508
12943 6 tri 6552 6524 6553
12944 6 tri 6508 6484 6524
12945 6 tri 6463 6470 6506
12946 6 tri 6429 6444 6470
12947 6 tri 6470 6514 6506
12948 6 tri 6485 6532 6514
12949 6 tri 6444 6395 6419
12950 6 tri 6429 6418 6379
12951 6 tri 6395 6444 6429
12952 6 tri 6419 6464 6444
12953 6 tri 6300 6344 6336
12954 6 tri 6395 6429 6379
12955 6 tri 6215 6253 6198
12956 6 tri 6285 6252 6237
12957 6 tri 6285 6344 6300
12958 6 tri 6285 6314 6344
12959 6 tri 6128 6101 6133
12960 6 tri 6130 6109 6079
12961 6 tri 6166 6203 6204
12962 6 tri 6167 6198 6203
12963 6 tri 6123 6124 6161
12964 6 tri 6167 6203 6166
12965 6 tri 6195 6204 6239
12966 6 tri 6195 6161 6204
12967 6 tri 6161 6124 6166
12968 6 tri 6089 6064 6050
12969 6 tri 6166 6128 6167
12970 6 tri 6089 6093 6064
12971 6 tri 6089 6050 6062
12972 6 tri 6064 6029 6050
12973 6 tri 6124 6089 6128
12974 6 tri 6124 6093 6089
12975 6 tri 6007 6040 5999
12976 6 tri 6007 6052 6040
12977 6 tri 6101 6062 6077
12978 6 tri 6050 6025 6062
12979 6 tri 6133 6101 6077
12980 6 tri 6128 6089 6101
12981 6 tri 6128 6133 6167
12982 6 tri 6077 6052 6109
12983 6 tri 6133 6198 6167
12984 6 tri 6253 6314 6285
12985 6 tri 6133 6109 6162
12986 6 tri 6346 6311 6367
12987 6 tri 6077 6109 6133
12988 6 tri 6052 6038 6079
12989 6 tri 6198 6162 6215
12990 6 tri 6198 6133 6162
12991 6 tri 6044 6088 6038
12992 6 tri 6130 6162 6109
12993 6 tri 6135 6088 6080
12994 6 tri 6135 6130 6088
12995 6 tri 6088 6130 6079
12996 6 tri 6178 6162 6130
12997 6 tri 6130 6135 6178
12998 6 tri 6142 6099 6164
12999 6 tri 6178 6234 6215
13000 6 tri 6178 6135 6191
13001 6 tri 6333 6292 6346
13002 6 tri 6234 6254 6292
13003 6 tri 6198 6253 6237
13004 6 tri 6215 6234 6276
13005 6 tri 6253 6276 6314
13006 6 tri 6253 6215 6276
13007 6 tri 6364 6333 6392
13008 6 tri 6276 6292 6333
13009 6 tri 6314 6364 6344
13010 6 tri 6314 6333 6364
13011 6 tri 6375 6346 6397
13012 6 tri 6292 6311 6346
13013 6 tri 6346 6375 6333
13014 6 tri 6397 6425 6375
13015 6 tri 6391 6358 6405
13016 6 tri 6391 6416 6367
13017 6 tri 6259 6309 6273
13018 6 tri 6405 6452 6440
13019 6 tri 6417 6405 6378
13020 6 tri 6358 6309 6339
13021 6 tri 6339 6309 6296
13022 6 tri 6358 6332 6309
13023 6 tri 6273 6332 6311
13024 6 tri 6273 6309 6332
13025 6 tri 6191 6210 6254
13026 6 tri 6142 6080 6099
13027 6 tri 6273 6254 6210
13028 6 tri 6311 6292 6254
13029 6 tri 6197 6164 6139
13030 6 tri 6210 6191 6142
13031 6 tri 6178 6191 6234
13032 6 tri 6135 6142 6191
13033 6 tri 6016 6043 6080
13034 6 tri 5997 5993 6049
13035 6 tri 6210 6142 6164
13036 6 tri 6135 6080 6142
13037 6 tri 5982 6041 5993
13038 6 tri 6020 6048 6073
13039 6 tri 6043 6049 6099
13040 6 tri 6043 5997 6049
13041 6 tri 6020 6073 6041
13042 6 tri 6154 6139 6098
13043 6 tri 6208 6197 6154
13044 6 tri 6244 6259 6197
13045 6 tri 6120 6143 6173
13046 6 tri 6220 6258 6208
13047 6 tri 6041 6073 6098
13048 6 tri 6095 6074 6114
13049 6 tri 6098 6120 6154
13050 6 tri 6073 6048 6095
13051 6 tri 6073 6095 6120
13052 6 tri 6048 6074 6095
13053 6 tri 6092 6108 6131
13054 6 tri 6107 6087 6071
13055 6 tri 6095 6143 6120
13056 6 tri 6114 6158 6143
13057 6 tri 6154 6173 6208
13058 6 tri 6154 6120 6173
13059 6 tri 6265 6260 6227
13060 6 tri 6220 6185 6227
13061 6 tri 6258 6260 6303
13062 6 tri 6220 6227 6260
13063 6 tri 6296 6258 6303
13064 6 tri 6244 6208 6258
13065 6 tri 6259 6296 6309
13066 6 tri 6244 6258 6296
13067 6 tri 6303 6334 6296
13068 6 tri 6378 6358 6339
13069 6 tri 6339 6374 6378
13070 6 tri 6334 6303 6337
13071 6 tri 6297 6299 6265
13072 6 tri 6337 6303 6299
13073 6 tri 6339 6334 6374
13074 6 tri 6339 6296 6334
13075 6 tri 6458 6480 6486
13076 6 tri 6407 6370 6401
13077 6 tri 6403 6433 6401
13078 6 tri 6487 6497 6531
13079 6 tri 6504 6477 6466
13080 6 tri 6458 6430 6454
13081 6 tri 6461 6466 6435
13082 6 tri 6495 6534 6504
13083 6 tri 6517 6477 6504
13084 6 tri 6466 6495 6504
13085 6 tri 6435 6407 6401
13086 6 tri 6413 6374 6407
13087 6 tri 6407 6441 6413
13088 6 tri 6435 6466 6441
13089 6 tri 6378 6405 6358
13090 6 tri 6378 6413 6417
13091 6 tri 6441 6456 6413
13092 6 tri 6452 6405 6417
13093 6 tri 6332 6391 6367
13094 6 tri 6405 6440 6391
13095 6 tri 6479 6439 6440
13096 6 tri 6479 6462 6439
13097 6 tri 6416 6462 6447
13098 6 tri 6479 6516 6502
13099 6 tri 6440 6482 6479
13100 6 tri 6452 6487 6482
13101 6 tri 6417 6456 6452
13102 6 tri 6417 6413 6456
13103 6 tri 6482 6487 6521
13104 6 tri 6452 6456 6487
13105 6 tri 6561 6557 6521
13106 6 tri 6556 6516 6520
13107 6 tri 6520 6557 6556
13108 6 tri 6520 6521 6557
13109 6 tri 6545 6502 6516
13110 6 tri 6536 6493 6502
13111 6 tri 6536 6545 6575
13112 6 tri 6516 6556 6545
13113 6 tri 6557 6591 6556
13114 6 tri 6636 6639 6603
13115 6 tri 6614 6613 6653
13116 6 tri 6614 6575 6613
13117 6 tri 6561 6600 6557
13118 6 tri 6627 6636 6591
13119 6 tri 6585 6600 6561
13120 6 tri 6629 6648 6600
13121 6 tri 6624 6583 6590
13122 6 tri 6621 6585 6583
13123 6 tri 6629 6585 6621
13124 6 tri 6561 6531 6585
13125 6 tri 6531 6497 6517
13126 6 tri 6487 6456 6497
13127 6 tri 6585 6531 6551
13128 6 tri 6561 6521 6531
13129 6 tri 6549 6517 6504
13130 6 tri 6517 6497 6477
13131 6 tri 6534 6549 6504
13132 6 tri 6551 6531 6517
13133 6 tri 6573 6549 6534
13134 6 tri 6590 6583 6549
13135 6 tri 6590 6573 6622
13136 6 tri 6534 6522 6554
13137 6 tri 6466 6461 6495
13138 6 tri 6435 6433 6461
13139 6 tri 6433 6403 6430
13140 6 tri 6401 6371 6403
13141 6 tri 6458 6433 6430
13142 6 tri 6435 6401 6433
13143 6 tri 6357 6384 6377
13144 6 tri 6400 6388 6409
13145 6 tri 6403 6406 6430
13146 6 tri 6384 6381 6400
13147 6 tri 6406 6424 6430
13148 6 tri 6406 6400 6424
13149 6 tri 6433 6458 6461
13150 6 tri 6454 6474 6480
13151 6 tri 6437 6451 6432
13152 6 tri 6460 6481 6475
13153 6 tri 6492 6467 6475
13154 6 tri 6474 6445 6467
13155 6 tri 6445 6432 6451
13156 6 tri 6393 6388 6372
13157 6 tri 6361 6388 6381
13158 6 tri 6422 6409 6432
13159 6 tri 6400 6406 6384
13160 6 tri 6359 6381 6384
13161 6 tri 6359 6345 6361
13162 6 tri 6388 6400 6381
13163 6 tri 6422 6424 6400
13164 6 tri 6330 6345 6359
13165 6 tri 6361 6352 6372
13166 6 tri 6317 6321 6345
13167 6 tri 6359 6361 6381
13168 6 tri 6347 6352 6361
13169 6 tri 6321 6305 6327
13170 6 tri 6304 6283 6305
13171 6 tri 6345 6321 6347
13172 6 tri 6304 6305 6321
13173 6 tri 6271 6272 6289
13174 6 tri 6246 6233 6257
13175 6 tri 6302 6317 6330
13176 6 tri 6289 6304 6317
13177 6 tri 6302 6268 6271
13178 6 tri 6297 6323 6299
13179 6 tri 6302 6271 6289
13180 6 tri 6268 6232 6236
13181 6 tri 6317 6302 6289
13182 6 tri 6325 6297 6302
13183 6 tri 6371 6351 6377
13184 6 tri 6325 6330 6357
13185 6 tri 6357 6351 6325
13186 6 tri 6337 6299 6323
13187 6 tri 6337 6351 6371
13188 6 tri 6323 6325 6351
13189 6 tri 6232 6265 6227
13190 6 tri 6268 6297 6265
13191 6 tri 6302 6297 6268
13192 6 tri 6325 6323 6297
13193 6 tri 6236 6232 6207
13194 6 tri 6268 6265 6232
13195 6 tri 6199 6172 6207
13196 6 tri 6121 6108 6087
13197 6 tri 6196 6222 6207
13198 6 tri 6271 6268 6236
13199 6 tri 6232 6199 6207
13200 6 tri 6092 6074 6053
13201 6 tri 6196 6177 6171
13202 6 tri 6087 6072 6055
13203 6 tri 6131 6158 6114
13204 6 tri 6172 6199 6158
13205 6 tri 6227 6199 6232
13206 6 tri 6227 6185 6199
13207 6 tri 6145 6131 6108
13208 6 tri 6172 6158 6131
13209 6 tri 6092 6131 6114
13210 6 tri 6108 6121 6145
13211 6 tri 6033 6053 6014
13212 6 tri 6033 6072 6053
13213 6 tri 6074 6092 6114
13214 6 tri 6053 6072 6092
13215 6 tri 6071 6055 6036
13216 6 tri 6072 6033 6055
13217 6 tri 6107 6121 6087
13218 6 tri 6108 6072 6087
13219 6 tri 6107 6138 6121
13220 6 tri 6177 6172 6145
13221 6 tri 6151 6145 6121
13222 6 tri 6172 6131 6145
13223 6 tri 6097 6107 6071
13224 6 tri 6171 6151 6138
13225 6 tri 6186 6171 6157
13226 6 tri 6177 6145 6151
13227 6 tri 6071 6036 6045
13228 6 tri 6055 6018 6036
13229 6 tri 6097 6071 6069
13230 6 tri 6087 6055 6071
13231 6 tri 6071 6045 6069
13232 6 tri 6036 6015 6045
13233 6 tri 6075 6102 6097
13234 6 tri 6097 6126 6107
13235 6 tri 6097 6102 6126
13236 6 tri 6157 6138 6126
13237 6 tri 6157 6171 6138
13238 6 tri 6171 6186 6196
13239 6 tri 6152 6180 6157
13240 6 tri 6205 6212 6186
13241 6 tri 6212 6196 6186
13242 6 tri 6177 6151 6171
13243 6 tri 6222 6196 6212
13244 6 tri 6207 6177 6196
13245 6 tri 6233 6246 6222
13246 6 tri 6236 6207 6222
13247 6 tri 6271 6246 6272
13248 6 tri 6271 6236 6246
13249 6 tri 6205 6230 6212
13250 6 tri 6257 6272 6246
13251 6 tri 6272 6257 6283
13252 6 tri 6233 6212 6230
13253 6 tri 6126 6152 6157
13254 6 tri 6186 6180 6205
13255 6 tri 6097 6069 6075
13256 6 tri 6126 6127 6152
13257 6 tri 6126 6102 6127
13258 6 tri 6045 6019 6047
13259 6 tri 6047 6075 6069
13260 6 tri 6257 6256 6280
13261 6 tri 6257 6230 6256
13262 6 tri 6347 6327 6352
13263 6 tri 6361 6372 6388
13264 6 tri 6409 6388 6393
13265 6 tri 6409 6415 6432
13266 6 tri 6409 6393 6415
13267 6 tri 6451 6437 6460
13268 6 tri 6432 6415 6437
13269 6 tri 6588 6619 6610
13270 6 tri 6592 6571 6610
13271 6 tri 6628 6635 6596
13272 6 tri 6519 6505 6530
13273 6 tri 6498 6492 6475
13274 6 tri 6498 6475 6481
13275 6 tri 6467 6451 6475
13276 6 tri 6481 6505 6498
13277 6 tri 6555 6546 6530
13278 6 tri 6555 6588 6571
13279 6 tri 6546 6519 6530
13280 6 tri 6546 6542 6519
13281 6 tri 6503 6515 6537
13282 6 tri 6571 6588 6610
13283 6 tri 6519 6515 6498
13284 6 tri 6474 6454 6445
13285 6 tri 6537 6515 6542
13286 6 tri 6492 6498 6515
13287 6 tri 6503 6474 6492
13288 6 tri 6480 6458 6454
13289 6 tri 6480 6503 6511
13290 6 tri 6492 6515 6503
13291 6 tri 6503 6480 6474
13292 6 tri 6486 6495 6461
13293 6 tri 6511 6486 6480
13294 6 tri 6511 6522 6486
13295 6 tri 6495 6522 6534
13296 6 tri 6495 6486 6522
13297 6 tri 6511 6544 6522
13298 6 tri 6625 6641 6598
13299 6 tri 6566 6569 6537
13300 6 tri 6544 6511 6537
13301 6 tri 6569 6544 6537
13302 6 tri 6554 6522 6544
13303 6 tri 6542 6566 6537
13304 6 tri 6580 6625 6598
13305 6 tri 6596 6635 6609
13306 6 tri 6658 6711 6670
13307 6 tri 6569 6580 6544
13308 6 tri 6609 6625 6580
13309 6 tri 6622 6598 6641
13310 6 tri 6573 6554 6598
13311 6 tri 6609 6635 6658
13312 6 tri 6729 6778 6726
13313 6 tri 6669 6683 6726
13314 6 tri 6641 6670 6683
13315 6 tri 6569 6596 6609
13316 6 tri 6628 6668 6635
13317 6 tri 6625 6658 6670
13318 6 tri 6635 6668 6676
13319 6 tri 6725 6676 6668
13320 6 tri 6628 6610 6645
13321 6 tri 6635 6676 6658
13322 6 tri 6668 6719 6725
13323 6 tri 6546 6566 6542
13324 6 tri 6592 6628 6596
13325 6 tri 6566 6596 6569
13326 6 tri 6566 6571 6592
13327 6 tri 6546 6571 6566
13328 6 tri 6546 6555 6571
13329 6 tri 6628 6592 6610
13330 6 tri 6596 6566 6592
13331 6 tri 6628 6645 6668
13332 6 tri 6688 6652 6691
13333 6 tri 6645 6619 6652
13334 6 tri 6719 6688 6740
13335 6 tri 6668 6645 6688
13336 6 tri 6776 6719 6740
13337 6 tri 6776 6740 6780
13338 6 tri 6768 6776 6781
13339 6 tri 6768 6781 6782
13340 6 tri 6768 6725 6776
13341 6 tri 6668 6688 6719
13342 6 tri 6776 6725 6719
13343 6 tri 6768 6755 6703
13344 6 tri 6658 6703 6711
13345 6 tri 6676 6725 6703
13346 6 tri 6784 6778 6774
13347 6 tri 6711 6703 6755
13348 6 tri 6670 6729 6683
13349 6 tri 6711 6755 6774
13350 6 tri 6711 6774 6729
13351 6 tri 6755 6783 6774
13352 6 tri 6755 6782 6783
13353 6 tri 6778 6784 6785
13354 6 tri 6774 6783 6784
13355 6 tri 6740 6779 6780
13356 7 tri 7455 7470 7429
13357 7 tri 7571 7535 7548
13358 7 tri 6965 6944 6985
13359 7 tri 6969 7014 6962
13360 7 tri 7047 7044 7008
13361 7 tri 7402 7443 7427
13362 7 tri 7148 7156 7176
13363 7 tri 7182 7196 7169
13364 7 tri 7505 7543 7526
13365 7 tri 8072 8060 8040
13366 7 tri 8041 8002 8025
13367 7 tri 7112 7068 7081
13368 7 tri 8365 6803 6804
13369 7 tri 7472 7510 7495
13370 7 tri 7470 7455 7489
13371 7 tri 6939 6983 6932
13372 7 tri 7342 7363 7333
13373 7 tri 7103 7086 7057
13374 7 tri 7722 7687 7713
13375 7 tri 6845 6844 6906
13376 7 tri 6891 6835 6834
13377 7 tri 7027 6997 6978
13378 7 tri 7148 7131 7156
13379 7 tri 7011 6960 6973
13380 7 tri 7239 7212 7250
13381 7 tri 6871 6894 6912
13382 7 tri 7146 7190 7173
13383 7 tri 6990 6994 7037
13384 7 tri 6894 6940 6968
13385 7 tri 7261 4378 7242
13386 7 tri 6827 8381 8375
13387 7 tri 7224 7212 7183
13388 7 tri 6958 6959 7003
13389 7 tri 7255 7298 7277
13390 7 tri 7635 7648 7607
13391 7 tri 7473 7488 7505
13392 7 tri 7366 7365 7317
13393 7 tri 7961 7918 7947
13394 7 tri 1083 1085 7909
13395 7 tri 7237 7260 7217
13396 7 tri 8025 7983 8009
13397 7 tri 7906 7931 1082
13398 7 tri 1077 1078 7982
13399 7 tri 8015 8035 8049
13400 7 tri 7935 7909 7905
13401 7 tri 8289 8290 8243
13402 7 tri 1086 1088 7870
13403 7 tri 8183 8186 8221
13404 7 tri 8369 6797 6798
13405 7 tri 7909 1085 7880
13406 7 tri 7619 7664 7612
13407 7 tri 8116 8154 8160
13408 7 tri 7144 7187 7152
13409 7 tri 7481 7445 7459
13410 7 tri 1082 7862 1083
13411 7 tri 7493 7463 7487
13412 7 tri 7870 7903 7905
13413 7 tri 8134 8139 8097
13414 7 tri 7537 7556 7520
13415 7 tri 6791 6792 8378
13416 7 tri 7139 7131 7109
13417 7 tri 6899 6939 6879
13418 7 tri 6891 6934 6950
13419 7 tri 7185 7179 7159
13420 7 tri 7236 7258 7249
13421 7 tri 7457 7449 7479
13422 7 tri 7405 7409 7383
13423 7 tri 7561 7531 7551
13424 7 tri 7486 7519 7512
13425 7 tri 7866 7891 7910
13426 7 tri 7985 7956 7995
13427 7 tri 7275 7276 7256
13428 7 tri 7034 7066 7020
13429 7 tri 7355 7370 7381
13430 7 tri 7356 7388 7377
13431 7 tri 7311 7287 7293
13432 7 tri 7122 7155 7111
13433 7 tri 7251 7218 7232
13434 7 tri 7145 7123 7103
13435 7 tri 7340 7325 7308
13436 7 tri 7283 7302 7329
13437 7 tri 7300 7286 7314
13438 7 tri 7189 7202 7176
13439 7 tri 7397 7402 7376
13440 7 tri 1119 1121 7621
13441 7 tri 7497 7506 7532
13442 7 tri 7542 7532 7506
13443 7 tri 7257 7277 7302
13444 7 tri 7429 7402 7397
13445 7 tri 7308 7325 7284
13446 7 tri 7371 7390 7410
13447 7 tri 6880 6929 6955
13448 7 tri 6907 6836 6835
13449 7 tri 6880 6930 6844
13450 7 tri 6906 6844 6930
13451 7 tri 7167 7200 7165
13452 7 tri 7097 7125 7140
13453 7 tri 6896 6838 6837
13454 7 tri 6927 6839 6838
13455 7 tri 6843 6880 6844
13456 7 tri 7074 7104 7125
13457 7 tri 6954 6920 6964
13458 7 tri 6852 6919 6915
13459 7 tri 7056 7101 7070
13460 7 tri 6977 6947 6931
13461 7 tri 7040 6989 7021
13462 7 tri 7166 7158 7127
13463 7 tri 6941 6903 6953
13464 7 tri 7266 7292 7289
13465 7 tri 8185 8152 8168
13466 7 tri 7483 4550 7450
13467 7 tri 7313 7331 7301
13468 7 tri 7541 7526 7560
13469 7 tri 7365 7366 7416
13470 7 tri 7093 7100 7118
13471 7 tri 7358 7335 7348
13472 7 tri 6941 6890 6903
13473 7 tri 7169 7178 7151
13474 7 tri 6964 6942 6992
13475 7 tri 7002 7039 7031
13476 7 tri 7209 7171 7204
13477 7 tri 7141 7113 7157
13478 7 tri 7130 7082 7117
13479 7 tri 7274 7231 7268
13480 7 tri 7431 7464 7450
13481 7 tri 7228 7244 7213
13482 7 tri 1097 7804 1094
13483 7 tri 1086 1085 7830
13484 7 tri 7888 7889 7942
13485 7 tri 7871 7903 7870
13486 7 tri 7939 7935 7905
13487 7 tri 7933 7906 7909
13488 7 tri 7946 7957 1079
13489 7 tri 7777 7806 7765
13490 7 tri 8214 8253 8213
13491 7 tri 7920 7965 7940
13492 7 tri 7920 7940 7898
13493 7 tri 7460 7500 7474
13494 7 tri 7709 7740 7701
13495 7 tri 7575 7569 7521
13496 7 tri 7857 7890 7853
13497 7 tri 7594 7560 7578
13498 7 tri 7983 7940 7965
13499 7 tri 7864 7900 7873
13500 7 tri 8032 8004 8002
13501 7 tri 7785 7802 7823
13502 7 tri 7904 7872 7853
13503 7 tri 7706 7689 7726
13504 7 tri 7919 7898 7940
13505 7 tri 7772 7762 7723
13506 7 tri 8306 5116 8266
13507 7 tri 1067 1066 8092
13508 7 tri 8306 8266 8259
13509 7 tri 6827 6828 8381
13510 7 tri 8264 8257 8221
13511 7 tri 8249 8293 8300
13512 7 tri 8380 8375 8331
13513 7 tri 6823 8368 8404
13514 7 tri 8047 8042 8081
13515 7 tri 1068 1069 8105
13516 7 tri 8108 8122 8093
13517 7 tri 8267 8227 8249
13518 7 tri 7928 7903 7895
13519 7 tri 8285 8325 8326
13520 7 tri 6810 8372 8394
13521 7 tri 8376 8337 8382
13522 7 tri 8251 8295 8283
13523 7 tri 6806 8385 8409
13524 7 tri 8339 8293 8299
13525 7 tri 8346 8330 8391
13526 7 tri 8362 6789 6790
13527 7 tri 7941 7953 7996
13528 7 tri 8237 8271 8270
13529 7 tri 8390 6796 8397
13530 7 tri 8315 8322 8269
13531 7 tri 8160 8177 8126
13532 7 tri 7980 8023 7971
13533 7 tri 8298 8286 8245
13534 7 tri 8241 8250 8208
13535 7 tri 7562 1121 7579
13536 7 tri 7988 7999 7943
13537 7 tri 7583 7571 7548
13538 7 tri 7609 7633 7596
13539 7 tri 7485 7490 7524
13540 7 tri 7782 1093 1091
13541 7 tri 7614 7582 7570
13542 7 tri 7469 7521 7467
13543 7 tri 7677 7654 7641
13544 7 tri 7698 7711 7742
13545 7 tri 7732 7749 7774
13546 7 tri 7742 7711 7756
13547 7 tri 7884 7841 7834
13548 7 tri 7879 7941 7927
13549 7 tri 7888 7875 7850
13550 7 tri 7834 7794 7788
13551 7 tri 8329 8276 8308
13552 7 tri 7987 8018 7997
13553 7 tri 8194 8174 8165
13554 7 tri 7649 7603 7624
13555 7 tri 7609 7608 7646
13556 7 tri 7678 7727 7704
13557 7 tri 7733 7786 7775
13558 7 tri 7821 7797 7829
13559 7 tri 7811 7821 7855
13560 7 tri 7887 7914 7912
13561 7 tri 8114 8135 8144
13562 7 tri 8302 8356 8316
13563 7 tri 8125 8111 8095
13564 7 tri 8248 8263 8225
13565 7 tri 8100 8078 8068
13566 7 tri 8196 8240 8236
13567 7 tri 8405 8357 8398
13568 7 tri 7577 7564 7599
13569 7 tri 6883 6926 6944
13570 7 tri 6889 6891 6834
13571 7 tri 6899 6831 6917
13572 7 tri 6832 6879 6833
13573 7 tri 7067 7106 7078
13574 7 tri 6883 6829 6926
13575 7 tri 6939 6965 7006
13576 7 tri 6933 6970 6896
13577 7 tri 6911 6962 6948
13578 7 tri 6934 6889 6932
13579 7 tri 7036 7084 7083
13580 7 tri 6907 6835 6891
13581 7 tri 7067 7078 7033
13582 7 tri 7122 7164 7155
13583 7 tri 6983 7025 7015
13584 7 tri 6927 6896 6970
13585 7 tri 7098 7109 7131
13586 7 tri 7184 7218 7224
13587 7 tri 7076 7095 7062
13588 7 tri 7107 7095 7076
13589 7 tri 7061 7075 7098
13590 7 tri 7109 7126 7139
13591 7 tri 6971 6985 6944
13592 7 tri 6939 7006 6983
13593 7 tri 7038 7075 7061
13594 7 tri 7026 7045 7062
13595 7 tri 7045 7076 7062
13596 7 tri 7172 7156 7139
13597 7 tri 7276 7265 7256
13598 7 tri 7205 7194 7179
13599 7 tri 7256 7265 7246
13600 7 tri 7311 7334 7330
13601 7 tri 7295 7305 7276
13602 7 tri 7323 7350 7344
13603 7 tri 7234 7254 7230
13604 7 tri 7551 7531 7517
13605 7 tri 7750 7767 7736
13606 7 tri 7624 7603 7584
13607 7 tri 7338 7346 7327
13608 7 tri 7253 7226 7249
13609 7 tri 7396 7387 7413
13610 7 tri 7438 7454 7476
13611 7 tri 7449 7440 7466
13612 7 tri 7546 7519 7561
13613 7 tri 7486 7463 7493
13614 7 tri 7502 7528 7536
13615 7 tri 7667 7622 7650
13616 7 tri 7531 7561 7519
13617 7 tri 7611 7577 7599
13618 7 tri 7437 7430 7404
13619 7 tri 7444 7438 7476
13620 7 tri 7584 7552 7546
13621 7 tri 7476 7454 7486
13622 7 tri 7461 1140 7459
13623 7 tri 7374 7344 7350
13624 7 tri 7514 7476 7512
13625 7 tri 7480 7444 7476
13626 7 tri 7354 7350 7330
13627 7 tri 7375 7398 7374
13628 7 tri 7388 7356 7372
13629 7 tri 7374 7350 7375
13630 7 tri 7293 7287 7265
13631 7 tri 7314 7344 7337
13632 7 tri 7421 7398 7435
13633 7 tri 7374 7372 7344
13634 7 tri 7249 7225 7236
13635 7 tri 7249 7226 7225
13636 7 tri 7211 7219 7236
13637 7 tri 7265 7287 7258
13638 7 tri 7114 7142 7106
13639 7 tri 7177 7203 7164
13640 7 tri 7287 7278 7258
13641 7 tri 7226 7253 7232
13642 7 tri 7395 7404 7430
13643 7 tri 7452 7444 7480
13644 7 tri 7214 7173 7190
13645 7 tri 7167 7128 7123
13646 7 tri 7212 7239 7200
13647 7 tri 7284 7298 7255
13648 7 tri 7419 7430 7445
13649 7 tri 7461 7430 7437
13650 7 tri 7423 7392 7419
13651 7 tri 7538 7559 7573
13652 7 tri 7395 7363 7377
13653 7 tri 7404 7420 7437
13654 7 tri 7462 7445 7481
13655 7 tri 7462 7423 7445
13656 7 tri 7515 1138 1140
13657 7 tri 7623 7576 7603
13658 7 tri 7515 7540 7529
13659 7 tri 7540 7580 7559
13660 7 tri 1140 7492 7515
13661 7 tri 7514 7512 7552
13662 7 tri 7637 7608 7600
13663 7 tri 7559 7529 7540
13664 7 tri 7600 7608 7573
13665 7 tri 7658 7671 7698
13666 7 tri 7775 7738 7718
13667 7 tri 7572 1127 1130
13668 7 tri 1130 7555 7572
13669 7 tri 1133 1135 7538
13670 7 tri 7581 7609 7572
13671 7 tri 7542 1124 7562
13672 7 tri 7497 7532 7510
13673 7 tri 7711 7671 7690
13674 7 tri 7489 7507 7527
13675 7 tri 7604 1121 1124
13676 7 tri 7566 7548 7533
13677 7 tri 7596 7572 7609
13678 7 tri 7630 7621 7604
13679 7 tri 1119 7579 1121
13680 7 tri 7607 7592 7563
13681 7 tri 7554 7524 7563
13682 7 tri 7790 7841 7845
13683 7 tri 7579 7545 7562
13684 7 tri 7566 7545 7579
13685 7 tri 7510 7532 7545
13686 7 tri 7641 1115 1119
13687 7 tri 7566 7583 7548
13688 7 tri 7329 7349 7371
13689 7 tri 7490 7509 7535
13690 7 tri 7407 7418 7367
13691 7 tri 7490 7471 7509
13692 7 tri 7482 7489 7455
13693 7 tri 7507 1133 1130
13694 7 tri 7510 7533 7495
13695 7 tri 7510 7545 7533
13696 7 tri 7371 7349 7390
13697 7 tri 7339 7298 7325
13698 7 tri 7434 7390 7427
13699 7 tri 7364 7322 7339
13700 7 tri 7173 7192 7149
13701 7 tri 6979 6987 7029
13702 7 tri 7386 7341 7384
13703 7 tri 7357 7329 7371
13704 7 tri 6916 6846 6845
13705 7 tri 7174 7217 7188
13706 7 tri 7121 7149 7104
13707 7 tri 7192 7174 7149
13708 7 tri 6881 6915 6935
13709 7 tri 7117 7082 7071
13710 7 tri 6980 6924 6945
13711 7 tri 6916 6961 6895
13712 7 tri 6980 6943 6924
13713 7 tri 6976 6930 6955
13714 7 tri 7013 7018 7058
13715 7 tri 7027 7074 7049
13716 7 tri 7028 7077 7059
13717 7 tri 7149 7125 7104
13718 7 tri 7162 7190 7146
13719 7 tri 7207 7239 7255
13720 7 tri 7036 7051 7012
13721 7 tri 7001 7028 6980
13722 7 tri 7088 7058 7051
13723 7 tri 7124 7165 7162
13724 7 tri 7111 7155 7143
13725 7 tri 7167 7212 7200
13726 7 tri 7105 7143 7103
13727 7 tri 7183 7212 7167
13728 7 tri 6839 6927 6918
13729 7 tri 7063 7019 7020
13730 7 tri 7014 7057 7046
13731 7 tri 6962 7004 6948
13732 7 tri 6955 6930 6880
13733 7 tri 7018 7051 7058
13734 7 tri 7013 7053 7001
13735 7 tri 6961 6916 6963
13736 7 tri 6846 6895 6847
13737 7 tri 7001 6980 6945
13738 7 tri 6978 6925 6943
13739 7 tri 6869 6868 6920
13740 7 tri 6860 6908 6861
13741 7 tri 6902 6938 6975
13742 7 tri 6905 6856 6855
13743 7 tri 6919 6886 6936
13744 7 tri 6905 6855 6928
13745 7 tri 7140 7125 7174
13746 7 tri 6959 7007 7003
13747 7 tri 7032 6987 7016
13748 7 tri 7005 7023 7056
13749 7 tri 6998 6957 6946
13750 7 tri 7023 7072 7056
13751 7 tri 7113 7101 7072
13752 7 tri 6861 6908 6923
13753 7 tri 6859 6921 6860
13754 7 tri 6998 7040 7035
13755 7 tri 6993 7003 7041
13756 7 tri 7079 7110 7115
13757 7 tri 7056 7070 7021
13758 7 tri 7101 7110 7070
13759 7 tri 6937 6910 6887
13760 7 tri 6904 6867 6866
13761 7 tri 7091 7054 7092
13762 7 tri 6996 6940 6954
13763 7 tri 6973 6910 6937
13764 7 tri 6873 6872 6900
13765 7 tri 4015 6878 6890
13766 7 tri 6953 6984 6941
13767 7 tri 7060 4180 7024
13768 7 tri 4063 6941 4102
13769 7 tri 4144 7024 4180
13770 7 tri 7093 4239 4211
13771 7 tri 6874 6893 6931
13772 7 tri 7138 7116 7102
13773 7 tri 7039 7002 6995
13774 7 tri 6892 6909 6876
13775 7 tri 6953 6909 6947
13776 7 tri 6909 6903 6877
13777 7 tri 6912 6872 6871
13778 7 tri 6940 6894 6898
13779 7 tri 6949 6995 6951
13780 7 tri 7031 6994 6977
13781 7 tri 6954 6940 6898
13782 7 tri 6912 6900 6872
13783 7 tri 7213 7178 7196
13784 7 tri 7160 7147 7134
13785 7 tri 7359 7379 7348
13786 7 tri 7240 7266 7261
13787 7 tri 7505 7488 7530
13788 7 tri 7385 7400 7378
13789 7 tri 7289 7292 7310
13790 7 tri 4436 7304 7328
13791 7 tri 7320 7310 7292
13792 7 tri 7320 7348 7335
13793 7 tri 7201 7186 7178
13794 7 tri 7201 7216 7186
13795 7 tri 7220 7197 7216
13796 7 tri 7197 7186 7216
13797 7 tri 7610 7632 7647
13798 7 tri 7574 4624 4605
13799 7 tri 7632 7610 7594
13800 7 tri 7483 4568 4550
13801 7 tri 7574 7541 7560
13802 7 tri 7431 7426 7400
13803 7 tri 7373 7382 7343
13804 7 tri 7526 7541 7511
13805 7 tri 7526 7511 7491
13806 7 tri 7652 7682 7689
13807 7 tri 7744 7762 7785
13808 7 tri 7446 7474 7488
13809 7 tri 7539 7508 7568
13810 7 tri 7754 7745 7792
13811 7 tri 7513 7488 7474
13812 7 tri 7353 7368 7394
13813 7 tri 7710 7664 7715
13814 7 tri 7465 7522 7508
13815 7 tri 7612 7664 7665
13816 7 tri 7267 7235 7272
13817 7 tri 7050 7094 7090
13818 7 tri 7353 7394 7380
13819 7 tri 7475 7494 7523
13820 7 tri 7299 7288 7267
13821 7 tri 7252 7240 7227
13822 7 tri 7347 7343 7319
13823 7 tri 7313 7288 7319
13824 7 tri 7245 7267 7259
13825 7 tri 7227 7240 7216
13826 7 tri 7245 7235 7267
13827 7 tri 7299 7336 7319
13828 7 tri 6996 7042 7047
13829 7 tri 7112 7102 7068
13830 7 tri 7129 7091 7133
13831 7 tri 7170 7168 7133
13832 7 tri 7127 7085 7087
13833 7 tri 7144 7110 7101
13834 7 tri 7243 7208 7248
13835 7 tri 7206 7198 7166
13836 7 tri 7291 7248 7247
13837 7 tri 7144 7101 7141
13838 7 tri 7282 7291 7247
13839 7 tri 7208 7209 7248
13840 7 tri 7193 7223 7181
13841 7 tri 7132 7133 7092
13842 7 tri 7638 7602 7640
13843 7 tri 7238 7282 7247
13844 7 tri 7092 7043 7089
13845 7 tri 6992 7011 7043
13846 7 tri 7090 7094 7136
13847 7 tri 7180 7187 7144
13848 7 tri 7199 7241 7221
13849 7 tri 7222 7199 7181
13850 7 tri 7174 7188 7140
13851 7 tri 7029 7071 7082
13852 7 tri 7217 7229 7188
13853 7 tri 7403 7371 7410
13854 7 tri 7217 7260 7229
13855 7 tri 7403 7410 7447
13856 7 tri 7279 7318 7268
13857 7 tri 7268 7241 7279
13858 7 tri 7393 7384 7345
13859 7 tri 7557 7554 7585
13860 7 tri 7241 7268 7221
13861 7 tri 7317 7365 7326
13862 7 tri 7522 7465 7467
13863 7 tri 7291 7326 7332
13864 7 tri 7593 7570 7547
13865 7 tri 7619 7672 7664
13866 7 tri 7717 7679 7700
13867 7 tri 7734 7691 7721
13868 7 tri 7451 7407 7453
13869 7 tri 7478 7439 7485
13870 7 tri 7585 7618 7602
13871 7 tri 7670 7679 7640
13872 7 tri 7631 7660 7676
13873 7 tri 7638 7626 7590
13874 7 tri 7659 7701 7680
13875 7 tri 7589 7593 7549
13876 7 tri 7676 7691 7642
13877 7 tri 7731 7714 7680
13878 7 tri 7870 7905 7880
13879 7 tri 7740 7731 7701
13880 7 tri 1086 7830 7819
13881 7 tri 7826 7854 7862
13882 7 tri 7800 7776 7761
13883 7 tri 7721 7707 7741
13884 7 tri 1091 1093 7837
13885 7 tri 7741 7729 7755
13886 7 tri 1093 1094 7820
13887 7 tri 7960 7992 8008
13888 7 tri 7913 7960 7928
13889 7 tri 7960 7951 7992
13890 7 tri 8043 8089 8052
13891 7 tri 7820 7837 1093
13892 7 tri 8019 7993 7986
13893 7 tri 8089 8043 8076
13894 7 tri 7952 7933 7909
13895 7 tri 7905 7903 7939
13896 7 tri 8138 8096 8115
13897 7 tri 8071 8055 8021
13898 7 tri 1088 7848 7870
13899 7 tri 7905 7909 7880
13900 7 tri 1080 7900 7882
13901 7 tri 7766 7805 7808
13902 7 tri 7993 7968 7963
13903 7 tri 7981 7957 7946
13904 7 tri 7945 1077 1076
13905 7 tri 8020 7989 8016
13906 7 tri 8013 7981 8007
13907 7 tri 7982 1078 7957
13908 7 tri 8117 8112 8081
13909 7 tri 8163 8138 8115
13910 7 tri 1074 7979 7976
13911 7 tri 8016 7982 8013
13912 7 tri 8073 8060 8094
13913 7 tri 8040 8051 8072
13914 7 tri 8006 1075 1076
13915 7 tri 7836 7843 7805
13916 7 tri 1077 7989 1076
13917 7 tri 8039 8060 8073
13918 7 tri 8035 1071 1070
13919 7 tri 7874 7857 7835
13920 7 tri 7929 1078 1077
13921 7 tri 7957 7981 7982
13922 7 tri 7801 7840 7836
13923 7 tri 7911 1078 7929
13924 7 tri 1082 7882 7862
13925 7 tri 1080 1079 7900
13926 7 tri 7765 7801 7757
13927 7 tri 7715 7664 7672
13928 7 tri 7854 1083 7862
13929 7 tri 7882 7864 7840
13930 7 tri 7697 7634 7665
13931 7 tri 7868 7886 7907
13932 7 tri 7714 7765 7757
13933 7 tri 7836 7873 7843
13934 7 tri 7645 7629 7681
13935 7 tri 4755 7803 7832
13936 7 tri 7682 7692 7723
13937 7 tri 7739 7723 7692
13938 7 tri 7853 7890 7904
13939 7 tri 1075 7959 1076
13940 7 tri 7857 7874 7901
13941 7 tri 7944 7959 7976
13942 7 tri 7861 7832 7823
13943 7 tri 7962 7974 7936
13944 7 tri 7902 7876 7919
13945 7 tri 7739 7772 7723
13946 7 tri 7856 7898 7876
13947 7 tri 7919 7876 7898
13948 7 tri 7823 7803 7785
13949 7 tri 7768 7803 4736
13950 7 tri 4755 4736 7803
13951 7 tri 7924 7897 7902
13952 7 tri 4818 4800 7897
13953 7 tri 4856 4836 7958
13954 7 tri 4818 7897 7924
13955 7 tri 4818 7924 4836
13956 7 tri 7974 8002 8004
13957 7 tri 7991 4856 7958
13958 7 tri 7958 7936 7974
13959 7 tri 4966 4942 8109
13960 7 tri 8032 8057 8022
13961 7 tri 8121 8152 8141
13962 7 tri 8041 8025 8061
13963 7 tri 8061 8045 8079
13964 7 tri 8108 8093 8083
13965 7 tri 8140 1067 8119
13966 7 tri 7944 7976 7947
13967 7 tri 8105 8093 8122
13968 7 tri 1072 1071 8028
13969 7 tri 8066 8083 1071
13970 7 tri 1075 7976 7959
13971 7 tri 7907 7918 7874
13972 7 tri 1075 1074 7976
13973 7 tri 7979 7961 7947
13974 7 tri 8066 1072 8053
13975 7 tri 1073 7994 1074
13976 7 tri 8053 8073 8087
13977 7 tri 8103 8072 8085
13978 7 tri 8113 8092 1066
13979 7 tri 8191 8211 8175
13980 7 tri 8336 8292 8321
13981 7 tri 8406 8381 6828
13982 7 tri 6822 6823 8404
13983 7 tri 8380 6826 8375
13984 7 tri 6825 8380 8370
13985 7 tri 8331 8290 8289
13986 7 tri 8368 6824 8370
13987 7 tri 8292 8289 8247
13988 7 tri 8259 8266 8228
13989 7 tri 8198 8228 5047
13990 7 tri 8347 5153 8306
13991 7 tri 4992 8141 8170
13992 7 tri 5153 5116 8306
13993 7 tri 6824 6825 8370
13994 7 tri 8264 8299 8257
13995 7 tri 6812 8374 8388
13996 7 tri 8382 8337 8340
13997 7 tri 8393 8326 8374
13998 7 tri 8393 8351 8326
13999 7 tri 8328 8278 8317
14000 7 tri 8186 8195 8231
14001 7 tri 8204 8213 8246
14002 7 tri 8328 8355 8309
14003 7 tri 8183 8217 8179
14004 7 tri 8267 8292 8247
14005 7 tri 8195 8157 8164
14006 7 tri 8264 8309 8299
14007 7 tri 8213 8166 8172
14008 7 tri 8127 8123 8101
14009 7 tri 8337 8280 8294
14010 7 tri 8253 8285 8297
14011 7 tri 8387 8355 8328
14012 7 tri 8317 8280 8337
14013 7 tri 8317 8337 8376
14014 7 tri 8280 8239 8246
14015 7 tri 8325 8374 8326
14016 7 tri 8393 8399 8351
14017 7 tri 6808 6809 8395
14018 7 tri 8230 8273 8251
14019 7 tri 8178 8189 8145
14020 7 tri 8285 8283 8325
14021 7 tri 8341 8323 8372
14022 7 tri 8301 8346 8335
14023 7 tri 8076 8126 8089
14024 7 tri 8333 8338 8287
14025 7 tri 8256 8230 8207
14026 7 tri 6806 6807 8385
14027 7 tri 8256 8273 8230
14028 7 tri 8303 8333 8287
14029 7 tri 8383 8385 6807
14030 7 tri 6814 8393 6813
14031 7 tri 6811 8388 8372
14032 7 tri 8327 8330 8284
14033 7 tri 8334 8311 8358
14034 7 tri 8327 8286 8344
14035 7 tri 8320 8361 8401
14036 7 tri 8319 8352 8307
14037 7 tri 8390 8364 6795
14038 7 tri 8362 6790 8366
14039 7 tri 8320 8277 8313
14040 7 tri 8036 7995 8001
14041 7 tri 8378 6792 8400
14042 7 tri 8311 8270 8271
14043 7 tri 8279 8244 8291
14044 7 tri 8274 8277 8320
14045 7 tri 8271 8279 8318
14046 7 tri 8345 8322 8378
14047 7 tri 8158 8167 8120
14048 7 tri 8209 8205 8169
14049 7 tri 8271 8318 8311
14050 7 tri 8324 8364 8318
14051 7 tri 8318 8358 8311
14052 7 tri 8318 8364 8390
14053 7 tri 6796 6797 8397
14054 7 tri 8377 8314 8365
14055 7 tri 8262 8287 8232
14056 7 tri 8222 8188 8224
14057 7 tri 8384 8346 8391
14058 7 tri 8373 8371 6800
14059 7 tri 8219 8178 8222
14060 7 tri 8178 8128 8143
14061 7 tri 8250 8224 8208
14062 7 tri 8265 8304 8261
14063 7 tri 8284 8241 8242
14064 7 tri 8177 8188 8143
14065 7 tri 8023 8031 8077
14066 7 tri 8242 8241 8197
14067 7 tri 7888 7923 7875
14068 7 tri 7860 7895 7871
14069 7 tri 8005 7955 7971
14070 7 tri 8064 8058 8014
14071 7 tri 7969 7951 7916
14072 7 tri 7817 7804 7783
14073 7 tri 7960 7913 7951
14074 7 tri 7971 7917 7923
14075 7 tri 7917 7921 7881
14076 7 tri 1097 7755 7737
14077 7 tri 7812 7849 7817
14078 7 tri 7878 7895 7860
14079 7 tri 7666 7628 7648
14080 7 tri 7702 7729 7693
14081 7 tri 7717 1100 1098
14082 7 tri 7755 1094 7771
14083 7 tri 7670 7686 7700
14084 7 tri 7748 7735 7716
14085 7 tri 7735 1105 7716
14086 7 tri 7878 7877 7916
14087 7 tri 7839 7850 7809
14088 7 tri 7851 7881 7842
14089 7 tri 7851 7824 7875
14090 7 tri 7796 7752 7747
14091 7 tri 7747 7752 7713
14092 7 tri 7674 1110 1111
14093 7 tri 7809 7787 7839
14094 7 tri 7809 7749 7787
14095 7 tri 1113 7654 7674
14096 7 tri 7677 7657 7703
14097 7 tri 7787 7749 7752
14098 7 tri 7774 7748 7732
14099 7 tri 7747 7713 7703
14100 7 tri 7641 7621 7657
14101 7 tri 7703 7713 7677
14102 7 tri 7722 7749 7705
14103 7 tri 7646 7690 7671
14104 7 tri 7673 7637 7639
14105 7 tri 7742 7794 7790
14106 7 tri 7756 7788 7794
14107 7 tri 7950 7943 7999
14108 7 tri 7834 7841 7794
14109 7 tri 7972 8014 7953
14110 7 tri 7941 7879 7892
14111 7 tri 7950 7893 7943
14112 7 tri 7796 7839 7787
14113 7 tri 8107 8124 8154
14114 7 tri 7950 7889 7893
14115 7 tri 8270 8245 8237
14116 7 tri 8154 8197 8160
14117 7 tri 8245 8209 8237
14118 7 tri 8245 8205 8209
14119 7 tri 8003 8075 8031
14120 7 tri 8169 8167 8209
14121 7 tri 8216 8193 8180
14122 7 tri 8058 7996 8014
14123 7 tri 8104 8064 8059
14124 7 tri 8190 8151 8173
14125 7 tri 8078 8118 8098
14126 7 tri 8194 8165 8184
14127 7 tri 8132 8100 8114
14128 7 tri 8135 8165 8144
14129 7 tri 7997 8018 8030
14130 7 tri 8086 8095 8111
14131 7 tri 8181 8134 8161
14132 7 tri 8058 8044 7996
14133 7 tri 8151 8161 8118
14134 7 tri 8065 8059 8026
14135 7 tri 7934 7956 7985
14136 7 tri 7995 8026 7985
14137 7 tri 8078 8036 8037
14138 7 tri 8059 8064 8017
14139 7 tri 7816 7838 7863
14140 7 tri 7891 7930 7910
14141 7 tri 7885 7915 7863
14142 7 tri 7910 7930 7956
14143 7 tri 7688 7694 7667
14144 7 tri 7696 7746 7727
14145 7 tri 7699 7728 7688
14146 7 tri 7667 7675 7644
14147 7 tri 7858 7867 7829
14148 7 tri 7912 7937 7925
14149 7 tri 8054 8033 8063
14150 7 tri 7669 7650 7636
14151 7 tri 7970 7987 7954
14152 7 tri 7719 7750 7736
14153 7 tri 8114 8086 8111
14154 7 tri 8135 8125 8153
14155 7 tri 8225 8218 8248
14156 7 tri 8307 8263 8281
14157 7 tri 8215 8196 8176
14158 7 tri 8268 8263 8307
14159 7 tri 8202 8190 8229
14160 7 tri 8173 8144 8174
14161 7 tri 8252 8226 8202
14162 7 tri 8252 8276 8226
14163 7 tri 8343 8282 8310
14164 7 tri 8272 8229 8254
14165 7 tri 8312 8359 8302
14166 7 tri 8272 8252 8229
14167 7 tri 8403 6788 8361
14168 7 tri 6780 8408 8407
14169 7 tri 8319 8307 8281
14170 7 tri 8411 8389 8356
14171 7 tri 6779 8407 8363
14172 7 tri 8402 8389 6784
14173 7 tri 6781 8408 6780
14174 7 tri 6917 6883 6944
14175 7 tri 6831 6899 6832
14176 7 tri 6932 6889 6879
14177 7 tri 6889 6934 6891
14178 7 tri 6991 7034 7020
14179 7 tri 6974 6934 6932
14180 7 tri 6907 6956 6882
14181 7 tri 6833 6889 6834
14182 7 tri 6833 6879 6889
14183 7 tri 6939 6932 6879
14184 7 tri 6983 6974 6932
14185 7 tri 6944 6965 6917
14186 7 tri 7006 6965 6985
14187 7 tri 6939 6899 6965
14188 7 tri 6832 6899 6879
14189 7 tri 6917 6965 6899
14190 7 tri 6831 6830 6917
14191 7 tri 6830 6883 6917
14192 7 tri 6830 6829 6883
14193 7 tri 7010 7045 7026
14194 7 tri 7062 7075 7038
14195 7 tri 7109 7075 7095
14196 7 tri 7154 7139 7126
14197 7 tri 7109 7095 7126
14198 7 tri 7006 7038 7025
14199 7 tri 7062 7095 7075
14200 7 tri 7114 7098 7131
14201 7 tri 7075 7109 7098
14202 7 tri 7026 7006 6985
14203 7 tri 7025 6983 7006
14204 7 tri 7026 7038 7006
14205 7 tri 7026 7062 7038
14206 7 tri 7025 7048 7015
14207 7 tri 7015 6986 6974
14208 7 tri 6986 7015 7033
14209 7 tri 7048 7061 7080
14210 7 tri 6974 6986 6934
14211 7 tri 7033 7034 6999
14212 7 tri 6983 7015 6974
14213 7 tri 7048 7033 7015
14214 7 tri 7048 7067 7033
14215 7 tri 7048 7080 7067
14216 7 tri 7067 7080 7106
14217 7 tri 7048 7025 7061
14218 7 tri 7080 7061 7098
14219 7 tri 7025 7038 7061
14220 7 tri 7080 7114 7106
14221 7 tri 7080 7098 7114
14222 7 tri 7194 7211 7189
14223 7 tri 7142 7164 7122
14224 7 tri 7189 7176 7156
14225 7 tri 7177 7164 7142
14226 7 tri 7148 7142 7114
14227 7 tri 7148 7177 7142
14228 7 tri 7131 7148 7114
14229 7 tri 7176 7177 7148
14230 7 tri 7202 7177 7176
14231 7 tri 7191 7218 7184
14232 7 tri 7202 7203 7177
14233 7 tri 7202 7225 7226
14234 7 tri 7194 7189 7172
14235 7 tri 7211 7202 7189
14236 7 tri 7246 7236 7219
14237 7 tri 7225 7202 7211
14238 7 tri 7179 7194 7172
14239 7 tri 7189 7156 7172
14240 7 tri 7154 7179 7172
14241 7 tri 7219 7211 7194
14242 7 tri 7137 7154 7126
14243 7 tri 7156 7131 7139
14244 7 tri 7179 7154 7159
14245 7 tri 7172 7139 7154
14246 7 tri 7185 7205 7179
14247 7 tri 7210 7230 7205
14248 7 tri 7210 7205 7185
14249 7 tri 7230 7219 7205
14250 7 tri 7137 7126 7107
14251 7 tri 7159 7154 7137
14252 7 tri 6985 7010 7026
14253 7 tri 7126 7095 7107
14254 7 tri 6944 6926 6971
14255 7 tri 6971 7010 6985
14256 7 tri 7254 7275 7256
14257 7 tri 7210 7234 7230
14258 7 tri 7230 7254 7256
14259 7 tri 7295 7316 7305
14260 7 tri 7305 7327 7311
14261 7 tri 7370 7361 7387
14262 7 tri 7636 7620 7653
14263 7 tri 7498 7479 7466
14264 7 tri 7536 7528 7558
14265 7 tri 7387 7396 7370
14266 7 tri 7413 7440 7425
14267 7 tri 7381 7383 7354
14268 7 tri 7487 7457 7479
14269 7 tri 7425 7440 7449
14270 7 tri 7517 7493 7487
14271 7 tri 7449 7466 7479
14272 7 tri 7528 7502 7498
14273 7 tri 7517 7487 7502
14274 7 tri 7502 7479 7498
14275 7 tri 7564 7577 7551
14276 7 tri 7611 7599 7636
14277 7 tri 7599 7564 7588
14278 7 tri 7669 7636 7653
14279 7 tri 7599 7588 7620
14280 7 tri 7601 7561 7587
14281 7 tri 7551 7536 7564
14282 7 tri 7611 7636 7650
14283 7 tri 7599 7620 7636
14284 7 tri 7517 7536 7551
14285 7 tri 7517 7502 7536
14286 7 tri 7558 7564 7536
14287 7 tri 7558 7588 7564
14288 7 tri 7577 7587 7551
14289 7 tri 7584 7546 7561
14290 7 tri 7622 7587 7611
14291 7 tri 7561 7551 7587
14292 7 tri 7622 7611 7650
14293 7 tri 7587 7577 7611
14294 7 tri 7667 7644 7622
14295 7 tri 7622 7644 7601
14296 7 tri 7561 7601 7584
14297 7 tri 7587 7622 7601
14298 7 tri 7601 7624 7584
14299 7 tri 7649 7678 7623
14300 7 tri 7603 7552 7584
14301 7 tri 7512 7519 7546
14302 7 tri 7576 7552 7603
14303 7 tri 7512 7546 7552
14304 7 tri 7457 7463 7433
14305 7 tri 7454 7421 7435
14306 7 tri 7476 7486 7512
14307 7 tri 7454 7463 7486
14308 7 tri 7502 7487 7479
14309 7 tri 7517 7531 7493
14310 7 tri 7519 7493 7531
14311 7 tri 7519 7486 7493
14312 7 tri 7449 7433 7425
14313 7 tri 7409 7398 7383
14314 7 tri 7463 7457 7487
14315 7 tri 7433 7449 7457
14316 7 tri 7463 7435 7433
14317 7 tri 7463 7454 7435
14318 7 tri 7408 7438 7444
14319 7 tri 7408 7399 7438
14320 7 tri 7421 7399 7398
14321 7 tri 7408 7372 7399
14322 7 tri 7438 7421 7454
14323 7 tri 7438 7399 7421
14324 7 tri 7337 7344 7372
14325 7 tri 7323 7314 7296
14326 7 tri 7399 7374 7398
14327 7 tri 7399 7372 7374
14328 7 tri 7311 7330 7306
14329 7 tri 7354 7383 7375
14330 7 tri 7334 7354 7330
14331 7 tri 7334 7346 7355
14332 7 tri 7354 7375 7350
14333 7 tri 7383 7398 7375
14334 7 tri 7435 7409 7433
14335 7 tri 7435 7398 7409
14336 7 tri 7433 7405 7425
14337 7 tri 7381 7354 7355
14338 7 tri 7425 7405 7396
14339 7 tri 7433 7409 7405
14340 7 tri 7396 7413 7425
14341 7 tri 7327 7346 7334
14342 7 tri 7338 7361 7346
14343 7 tri 7405 7381 7396
14344 7 tri 7346 7361 7370
14345 7 tri 7334 7355 7354
14346 7 tri 7346 7370 7355
14347 7 tri 7396 7381 7370
14348 7 tri 7405 7383 7381
14349 7 tri 7350 7323 7330
14350 7 tri 7278 7287 7306
14351 7 tri 7287 7311 7306
14352 7 tri 7327 7316 7338
14353 7 tri 7293 7305 7311
14354 7 tri 7293 7276 7305
14355 7 tri 7311 7327 7334
14356 7 tri 7305 7316 7327
14357 7 tri 7256 7246 7230
14358 7 tri 7265 7258 7246
14359 7 tri 7295 7276 7275
14360 7 tri 7293 7265 7276
14361 7 tri 7205 7219 7194
14362 7 tri 7230 7246 7219
14363 7 tri 7211 7236 7225
14364 7 tri 7246 7258 7236
14365 7 tri 7278 7249 7258
14366 7 tri 7226 7203 7202
14367 7 tri 7296 7278 7306
14368 7 tri 7270 7249 7278
14369 7 tri 7278 7296 7270
14370 7 tri 7306 7330 7323
14371 7 tri 7314 7323 7344
14372 7 tri 7296 7306 7323
14373 7 tri 7296 7286 7270
14374 7 tri 7250 7269 7294
14375 7 tri 7300 7314 7337
14376 7 tri 7286 7296 7314
14377 7 tri 7270 7253 7249
14378 7 tri 7270 7286 7253
14379 7 tri 7264 7232 7253
14380 7 tri 7232 7203 7226
14381 7 tri 7286 7264 7253
14382 7 tri 7218 7191 7232
14383 7 tri 7294 7308 7273
14384 7 tri 7251 7232 7264
14385 7 tri 7286 7300 7264
14386 7 tri 7324 7356 7342
14387 7 tri 7300 7290 7264
14388 7 tri 7250 7212 7224
14389 7 tri 7264 7290 7251
14390 7 tri 7300 7337 7324
14391 7 tri 7143 7155 7184
14392 7 tri 7164 7191 7155
14393 7 tri 7203 7191 7164
14394 7 tri 7203 7232 7191
14395 7 tri 7143 7184 7183
14396 7 tri 7155 7191 7184
14397 7 tri 7251 7224 7218
14398 7 tri 7324 7290 7300
14399 7 tri 7128 7167 7165
14400 7 tri 7145 7183 7167
14401 7 tri 7143 7183 7145
14402 7 tri 7184 7224 7183
14403 7 tri 7251 7269 7224
14404 7 tri 7273 7239 7250
14405 7 tri 7250 7294 7273
14406 7 tri 7333 7362 7340
14407 7 tri 7224 7269 7250
14408 7 tri 7251 7290 7269
14409 7 tri 7290 7309 7269
14410 7 tri 7333 7308 7294
14411 7 tri 7391 7362 7392
14412 7 tri 7340 7308 7333
14413 7 tri 7430 7419 7395
14414 7 tri 7362 7333 7363
14415 7 tri 7391 7360 7362
14416 7 tri 7325 7298 7284
14417 7 tri 7362 7360 7340
14418 7 tri 7364 7402 7390
14419 7 tri 7448 7422 7423
14420 7 tri 7397 7360 7391
14421 7 tri 7391 7422 7397
14422 7 tri 7391 7423 7422
14423 7 tri 7391 7392 7423
14424 7 tri 7362 7363 7392
14425 7 tri 7423 7419 7445
14426 7 tri 7392 7363 7395
14427 7 tri 7333 7309 7342
14428 7 tri 7388 7372 7408
14429 7 tri 7404 7395 7377
14430 7 tri 7419 7392 7395
14431 7 tri 7294 7309 7333
14432 7 tri 7294 7269 7309
14433 7 tri 7324 7342 7309
14434 7 tri 7377 7363 7342
14435 7 tri 7290 7324 7309
14436 7 tri 7337 7356 7324
14437 7 tri 7342 7356 7377
14438 7 tri 7337 7372 7356
14439 7 tri 7420 7388 7408
14440 7 tri 7404 7377 7388
14441 7 tri 7388 7420 7404
14442 7 tri 7408 7444 7420
14443 7 tri 7444 7452 7420
14444 7 tri 7461 7459 7430
14445 7 tri 7484 7461 7452
14446 7 tri 7437 7420 7452
14447 7 tri 1138 1135 7481
14448 7 tri 7445 7430 7459
14449 7 tri 7452 7461 7437
14450 7 tri 7452 7480 7484
14451 7 tri 7461 7484 7492
14452 7 tri 7480 7476 7514
14453 7 tri 7461 7492 1140
14454 7 tri 7484 7503 7492
14455 7 tri 7520 7503 7537
14456 7 tri 7484 7480 7503
14457 7 tri 7537 7514 7552
14458 7 tri 7503 7480 7514
14459 7 tri 7556 7537 7576
14460 7 tri 7503 7514 7537
14461 7 tri 7556 7576 7591
14462 7 tri 7537 7552 7576
14463 7 tri 7616 7591 7623
14464 7 tri 7580 7540 7556
14465 7 tri 7656 7623 7678
14466 7 tri 7591 7576 7623
14467 7 tri 7580 7556 7591
14468 7 tri 7540 7520 7556
14469 7 tri 7718 7690 7673
14470 7 tri 7580 7591 7616
14471 7 tri 1138 7515 7529
14472 7 tri 7492 7520 7515
14473 7 tri 7515 7520 7540
14474 7 tri 7492 7503 7520
14475 7 tri 7600 7573 7559
14476 7 tri 7538 7555 1133
14477 7 tri 7580 7600 7559
14478 7 tri 7608 7581 7573
14479 7 tri 7616 7600 7580
14480 7 tri 7637 7646 7608
14481 7 tri 7616 7639 7600
14482 7 tri 7673 7683 7718
14483 7 tri 7555 7581 7572
14484 7 tri 7646 7671 7633
14485 7 tri 7604 1124 7596
14486 7 tri 7609 7646 7633
14487 7 tri 7542 7527 1127
14488 7 tri 7462 7482 7448
14489 7 tri 7573 7581 7555
14490 7 tri 7608 7609 7581
14491 7 tri 7527 7507 1130
14492 7 tri 7489 7482 7507
14493 7 tri 1130 1133 7555
14494 7 tri 7507 7482 7496
14495 7 tri 7538 1135 7529
14496 7 tri 1133 7507 7496
14497 7 tri 7559 7538 7529
14498 7 tri 7573 7555 7538
14499 7 tri 1140 1138 7459
14500 7 tri 7496 7482 7462
14501 7 tri 1135 1138 7529
14502 7 tri 7481 7459 1138
14503 7 tri 1135 7496 7481
14504 7 tri 7448 7423 7462
14505 7 tri 7481 7496 7462
14506 7 tri 1135 1133 7496
14507 7 tri 7429 7470 7443
14508 7 tri 7489 7506 7470
14509 7 tri 7434 7427 7458
14510 7 tri 7470 7506 7497
14511 7 tri 7472 7497 7510
14512 7 tri 7472 7470 7497
14513 7 tri 1119 7598 7579
14514 7 tri 7495 7458 7472
14515 7 tri 7532 7562 7545
14516 7 tri 7532 7542 7562
14517 7 tri 1127 7527 1130
14518 7 tri 7506 7489 7527
14519 7 tri 7527 7542 7506
14520 7 tri 1124 1121 7562
14521 7 tri 1127 1124 7542
14522 7 tri 1127 7572 7596
14523 7 tri 7630 7604 7596
14524 7 tri 1124 1127 7596
14525 7 tri 7633 7630 7596
14526 7 tri 7621 1121 7604
14527 7 tri 7671 7658 7633
14528 7 tri 7657 7621 7630
14529 7 tri 7641 1119 7621
14530 7 tri 7641 7654 1115
14531 7 tri 7583 7566 7598
14532 7 tri 7598 1119 1115
14533 7 tri 7545 7566 7533
14534 7 tri 7635 1111 1110
14535 7 tri 7579 7598 7566
14536 7 tri 1115 7654 1113
14537 7 tri 7571 7583 7605
14538 7 tri 7617 1111 7635
14539 7 tri 7563 7571 7607
14540 7 tri 7583 7598 7617
14541 7 tri 7583 7617 7605
14542 7 tri 7598 1115 1113
14543 7 tri 7617 1113 1111
14544 7 tri 7617 7598 1113
14545 7 tri 7666 7651 7628
14546 7 tri 7651 7640 7618
14547 7 tri 7617 7635 7605
14548 7 tri 7648 7628 7607
14549 7 tri 7635 7607 7605
14550 7 tri 7628 7592 7607
14551 7 tri 7602 7618 7640
14552 7 tri 7592 7628 7618
14553 7 tri 7618 7585 7592
14554 7 tri 7557 7550 7516
14555 7 tri 7554 7563 7592
14556 7 tri 7524 7535 7563
14557 7 tri 7509 7548 7535
14558 7 tri 7509 7533 7548
14559 7 tri 7607 7571 7605
14560 7 tri 7563 7535 7571
14561 7 tri 7434 7471 7447
14562 7 tri 7458 7495 7471
14563 7 tri 7509 7495 7533
14564 7 tri 7509 7471 7495
14565 7 tri 7471 7490 7447
14566 7 tri 7524 7554 7518
14567 7 tri 7524 7490 7535
14568 7 tri 7485 7439 7447
14569 7 tri 7447 7439 7403
14570 7 tri 7478 7516 7468
14571 7 tri 7434 7447 7410
14572 7 tri 7490 7485 7447
14573 7 tri 7312 7283 7329
14574 7 tri 7349 7302 7322
14575 7 tri 7432 7393 7439
14576 7 tri 7357 7371 7403
14577 7 tri 7329 7302 7349
14578 7 tri 7277 7298 7322
14579 7 tri 7312 7260 7283
14580 7 tri 7302 7277 7322
14581 7 tri 7458 7427 7472
14582 7 tri 7429 7397 7422
14583 7 tri 7390 7434 7410
14584 7 tri 7458 7471 7434
14585 7 tri 7390 7402 7427
14586 7 tri 7364 7349 7322
14587 7 tri 7472 7443 7470
14588 7 tri 7472 7427 7443
14589 7 tri 7448 7455 7422
14590 7 tri 7443 7402 7429
14591 7 tri 7422 7455 7429
14592 7 tri 7448 7482 7455
14593 7 tri 7360 7325 7340
14594 7 tri 7360 7376 7339
14595 7 tri 7339 7376 7364
14596 7 tri 7360 7397 7376
14597 7 tri 7298 7339 7322
14598 7 tri 7325 7360 7339
14599 7 tri 7402 7364 7376
14600 7 tri 7390 7349 7364
14601 7 tri 7207 7233 7190
14602 7 tri 7255 7277 7233
14603 7 tri 7283 7257 7302
14604 7 tri 7257 7237 7214
14605 7 tri 7207 7255 7233
14606 7 tri 7239 7273 7284
14607 7 tri 7239 7284 7255
14608 7 tri 7273 7308 7284
14609 7 tri 7083 7128 7124
14610 7 tri 7200 7207 7165
14611 7 tri 7162 7207 7190
14612 7 tri 7200 7239 7207
14613 7 tri 7121 7146 7173
14614 7 tri 7096 7088 7119
14615 7 tri 7119 7162 7146
14616 7 tri 7165 7207 7162
14617 7 tri 7121 7173 7149
14618 7 tri 7190 7233 7214
14619 7 tri 7173 7214 7192
14620 7 tri 7233 7277 7257
14621 7 tri 7192 7214 7237
14622 7 tri 7214 7233 7257
14623 7 tri 7357 7312 7329
14624 7 tri 7237 7257 7283
14625 7 tri 7297 7262 7260
14626 7 tri 7229 7193 7188
14627 7 tri 7384 7341 7345
14628 7 tri 7297 7341 7303
14629 7 tri 7149 7174 7125
14630 7 tri 7192 7217 7174
14631 7 tri 7260 7237 7283
14632 7 tri 7217 7192 7237
14633 7 tri 7193 7161 7153
14634 7 tri 7097 7074 7125
14635 7 tri 7053 7077 7028
14636 7 tri 7104 7074 7059
14637 7 tri 7071 7032 7064
14638 7 tri 7049 7074 7097
14639 7 tri 7059 7009 7028
14640 7 tri 7064 7016 7049
14641 7 tri 7028 7009 6980
14642 7 tri 7027 7049 6997
14643 7 tri 7016 6997 7049
14644 7 tri 6936 6978 6997
14645 7 tri 7059 7027 7009
14646 7 tri 7059 7074 7027
14647 7 tri 6919 6936 6966
14648 7 tri 6943 6980 7009
14649 7 tri 7016 6967 6966
14650 7 tri 6936 6997 6966
14651 7 tri 6849 6888 6925
14652 7 tri 6851 6886 6919
14653 7 tri 6943 6888 6924
14654 7 tri 6886 6925 6936
14655 7 tri 6886 6850 6925
14656 7 tri 6978 6943 7009
14657 7 tri 6925 6888 6943
14658 7 tri 7027 6978 7009
14659 7 tri 6936 6925 6978
14660 7 tri 7001 6961 7013
14661 7 tri 6945 6895 6961
14662 7 tri 6961 7001 6945
14663 7 tri 7013 7058 7053
14664 7 tri 6924 6895 6945
14665 7 tri 6846 6916 6895
14666 7 tri 6906 6963 6916
14667 7 tri 6929 6948 6982
14668 7 tri 7004 6982 6948
14669 7 tri 6976 7018 6963
14670 7 tri 6961 6963 7013
14671 7 tri 6906 6930 6963
14672 7 tri 6930 6976 6963
14673 7 tri 6955 7012 6976
14674 7 tri 7004 7046 7036
14675 7 tri 7051 7018 7012
14676 7 tri 6963 7018 7013
14677 7 tri 6976 7012 7018
14678 7 tri 7001 7053 7028
14679 7 tri 7096 7146 7121
14680 7 tri 7059 7077 7104
14681 7 tri 7053 7058 7096
14682 7 tri 7053 7096 7077
14683 7 tri 7058 7088 7096
14684 7 tri 7077 7121 7104
14685 7 tri 7077 7096 7121
14686 7 tri 7083 7088 7051
14687 7 tri 7119 7146 7096
14688 7 tri 7124 7119 7088
14689 7 tri 7124 7162 7119
14690 7 tri 7123 7128 7084
14691 7 tri 7083 7051 7036
14692 7 tri 7124 7128 7165
14693 7 tri 7084 7086 7123
14694 7 tri 6982 7004 7036
14695 7 tri 7046 7086 7084
14696 7 tri 7128 7083 7084
14697 7 tri 7124 7088 7083
14698 7 tri 7012 6982 7036
14699 7 tri 6969 6918 6927
14700 7 tri 7019 7014 6969
14701 7 tri 7019 7057 7014
14702 7 tri 7036 7046 7084
14703 7 tri 7004 7014 7046
14704 7 tri 7103 7123 7086
14705 7 tri 7145 7167 7123
14706 7 tri 7063 7105 7103
14707 7 tri 7105 7066 7111
14708 7 tri 7103 7143 7145
14709 7 tri 7105 7111 7143
14710 7 tri 7066 7034 7078
14711 7 tri 7078 7106 7122
14712 7 tri 7078 7122 7111
14713 7 tri 7106 7142 7122
14714 7 tri 7078 7034 7033
14715 7 tri 7078 7111 7066
14716 7 tri 7063 7066 7105
14717 7 tri 7063 7020 7066
14718 7 tri 7020 7019 6981
14719 7 tri 7057 7086 7046
14720 7 tri 7063 7057 7019
14721 7 tri 7063 7103 7057
14722 7 tri 6907 6950 6956
14723 7 tri 6999 7034 6991
14724 7 tri 6981 6970 7020
14725 7 tri 6956 6999 6991
14726 7 tri 6986 6950 6934
14727 7 tri 6986 6999 6950
14728 7 tri 6950 6999 6956
14729 7 tri 6986 7033 6999
14730 7 tri 6933 6896 6882
14731 7 tri 6837 6836 6882
14732 7 tri 6836 6907 6882
14733 7 tri 6891 6950 6907
14734 7 tri 6882 6896 6837
14735 7 tri 6882 6956 6933
14736 7 tri 6991 6933 6956
14737 7 tri 6970 6981 6927
14738 7 tri 6927 6981 6969
14739 7 tri 7004 6962 7014
14740 7 tri 6948 6885 6911
14741 7 tri 7019 6969 6981
14742 7 tri 6962 6918 6969
14743 7 tri 6991 6970 6933
14744 7 tri 6991 7020 6970
14745 7 tri 6842 6885 6929
14746 7 tri 6885 6948 6929
14747 7 tri 6955 6982 7012
14748 7 tri 6955 6929 6982
14749 7 tri 6880 6842 6929
14750 7 tri 6841 6911 6885
14751 7 tri 6918 6962 6911
14752 7 tri 6843 6842 6880
14753 7 tri 6841 6885 6842
14754 7 tri 6911 6840 6918
14755 7 tri 6841 6840 6911
14756 7 tri 6840 6839 6918
14757 7 tri 6896 6927 6838
14758 7 tri 6924 6847 6895
14759 7 tri 6848 6888 6849
14760 7 tri 6916 6845 6906
14761 7 tri 6848 6924 6888
14762 7 tri 6847 6924 6848
14763 7 tri 6925 6850 6849
14764 7 tri 6886 6851 6850
14765 7 tri 6854 6881 6928
14766 7 tri 6857 6913 6901
14767 7 tri 6901 6938 6902
14768 7 tri 6858 6857 6901
14769 7 tri 6857 6856 6913
14770 7 tri 6928 6855 6854
14771 7 tri 6853 6915 6881
14772 7 tri 6851 6919 6852
14773 7 tri 6854 6853 6881
14774 7 tri 6919 6966 6967
14775 7 tri 6852 6915 6853
14776 7 tri 6935 6928 6881
14777 7 tri 6979 6959 6928
14778 7 tri 6928 6935 6979
14779 7 tri 6915 6919 6967
14780 7 tri 6935 6987 6979
14781 7 tri 7016 6966 6997
14782 7 tri 6935 6967 6987
14783 7 tri 6935 6915 6967
14784 7 tri 7064 7032 7016
14785 7 tri 6987 6967 7016
14786 7 tri 7153 7117 7108
14787 7 tri 7029 6987 7032
14788 7 tri 7097 7064 7049
14789 7 tri 7097 7140 7108
14790 7 tri 7097 7108 7064
14791 7 tri 7136 7157 7113
14792 7 tri 7064 7108 7071
14793 7 tri 7140 7188 7153
14794 7 tri 7029 7082 7052
14795 7 tri 7071 7108 7117
14796 7 tri 7140 7153 7108
14797 7 tri 7161 7181 7130
14798 7 tri 6979 7029 7007
14799 7 tri 7032 7071 7029
14800 7 tri 7094 7052 7082
14801 7 tri 7007 7029 7052
14802 7 tri 6958 7003 6993
14803 7 tri 7007 7052 7050
14804 7 tri 7041 7050 7090
14805 7 tri 7003 7007 7050
14806 7 tri 7136 7094 7130
14807 7 tri 7050 7052 7094
14808 7 tri 7157 7136 7181
14809 7 tri 7094 7082 7130
14810 7 tri 7072 7090 7113
14811 7 tri 7072 7041 7090
14812 7 tri 7090 7136 7113
14813 7 tri 7130 7181 7136
14814 7 tri 7005 6975 7023
14815 7 tri 7003 7050 7041
14816 7 tri 7023 7041 7072
14817 7 tri 7023 6975 6993
14818 7 tri 6859 6902 6921
14819 7 tri 6938 6958 6993
14820 7 tri 7023 6993 7041
14821 7 tri 6938 6901 6958
14822 7 tri 6913 6958 6901
14823 7 tri 6913 6959 6958
14824 7 tri 6905 6959 6913
14825 7 tri 6979 7007 6959
14826 7 tri 6959 6905 6928
14827 7 tri 6913 6856 6905
14828 7 tri 6975 6938 6993
14829 7 tri 6921 6908 6860
14830 7 tri 6858 6902 6859
14831 7 tri 6858 6901 6902
14832 7 tri 6975 6921 6902
14833 7 tri 6975 6952 6921
14834 7 tri 6914 6884 6946
14835 7 tri 6908 6952 6972
14836 7 tri 6914 6946 6957
14837 7 tri 7011 6973 7022
14838 7 tri 6887 6863 6914
14839 7 tri 6923 6908 6972
14840 7 tri 6887 6957 6937
14841 7 tri 7040 7021 7070
14842 7 tri 7022 6988 7035
14843 7 tri 6937 6957 6988
14844 7 tri 6972 6952 7005
14845 7 tri 6908 6921 6952
14846 7 tri 6989 6972 7021
14847 7 tri 6946 6923 6972
14848 7 tri 6946 6989 6998
14849 7 tri 6946 6972 6989
14850 7 tri 6972 7005 7021
14851 7 tri 6952 6975 7005
14852 7 tri 7110 7079 7070
14853 7 tri 6998 6989 7040
14854 7 tri 7005 7056 7021
14855 7 tri 7072 7101 7056
14856 7 tri 7069 7079 7115
14857 7 tri 7040 7070 7079
14858 7 tri 7163 7171 7135
14859 7 tri 7099 7069 7115
14860 7 tri 7079 7035 7040
14861 7 tri 6988 6957 6998
14862 7 tri 7055 7022 7069
14863 7 tri 6988 6998 7035
14864 7 tri 7089 7055 7099
14865 7 tri 6904 6942 6897
14866 7 tri 7055 7069 7099
14867 7 tri 7035 7079 7069
14868 7 tri 7135 7132 7099
14869 7 tri 7092 7054 7043
14870 7 tri 7115 7135 7099
14871 7 tri 7152 7187 7195
14872 7 tri 7132 7092 7089
14873 7 tri 7133 7091 7092
14874 7 tri 7099 7132 7089
14875 7 tri 7170 7171 7209
14876 7 tri 7089 7043 7055
14877 7 tri 6942 6964 6897
14878 7 tri 7127 7120 7085
14879 7 tri 7047 7008 6996
14880 7 tri 6973 6988 7022
14881 7 tri 7043 7054 7017
14882 7 tri 7043 7017 6992
14883 7 tri 6996 7008 6968
14884 7 tri 7043 7011 7055
14885 7 tri 6922 6904 6866
14886 7 tri 7069 7022 7035
14887 7 tri 7055 7011 7022
14888 7 tri 6992 6960 7011
14889 7 tri 6904 6897 6867
14890 7 tri 6922 6973 6960
14891 7 tri 6937 6988 6973
14892 7 tri 6992 6942 6960
14893 7 tri 6992 7017 6964
14894 7 tri 7054 7091 7042
14895 7 tri 6920 6897 6964
14896 7 tri 6897 6868 6867
14897 7 tri 6897 6920 6868
14898 7 tri 6863 6887 6864
14899 7 tri 6865 6922 6866
14900 7 tri 6960 6942 6904
14901 7 tri 6973 6922 6910
14902 7 tri 6960 6904 6922
14903 7 tri 6887 6914 6957
14904 7 tri 6863 6862 6884
14905 7 tri 6923 6862 6861
14906 7 tri 6884 6914 6863
14907 7 tri 6923 6884 6862
14908 7 tri 6923 6946 6884
14909 7 tri 6910 6864 6887
14910 7 tri 6910 6865 6864
14911 7 tri 6910 6922 6865
14912 7 tri 6869 6920 6898
14913 7 tri 6870 6894 6871
14914 7 tri 6893 6873 6900
14915 7 tri 6949 6951 6900
14916 7 tri 6931 6875 6874
14917 7 tri 6875 6892 6876
14918 7 tri 6873 6893 6874
14919 7 tri 6877 6903 6878
14920 7 tri 4015 6890 4063
14921 7 tri 6878 6903 6890
14922 7 tri 6876 6909 6877
14923 7 tri 4144 4102 6984
14924 7 tri 4063 6890 6941
14925 7 tri 6984 7024 4144
14926 7 tri 6984 6953 6990
14927 7 tri 6984 7030 7024
14928 7 tri 7073 7068 7102
14929 7 tri 7024 7030 7060
14930 7 tri 6941 6984 4102
14931 7 tri 4267 4239 7118
14932 7 tri 7073 7102 7116
14933 7 tri 4211 4180 7060
14934 7 tri 7093 4211 7060
14935 7 tri 4239 7093 7118
14936 7 tri 7073 7065 7037
14937 7 tri 4267 7118 7147
14938 7 tri 7065 7060 7030
14939 7 tri 7151 7116 7138
14940 7 tri 7134 7118 7100
14941 7 tri 7160 7134 7151
14942 7 tri 7147 7118 7134
14943 7 tri 7138 7102 7112
14944 7 tri 7065 7093 7060
14945 7 tri 7120 7112 7081
14946 7 tri 7150 7138 7112
14947 7 tri 6990 7037 7030
14948 7 tri 6994 7031 7037
14949 7 tri 7100 7065 7073
14950 7 tri 7037 7031 7073
14951 7 tri 7037 7065 7030
14952 7 tri 7073 7116 7100
14953 7 tri 7134 7100 7116
14954 7 tri 7093 7065 7100
14955 7 tri 6984 6990 7030
14956 7 tri 6953 6947 6990
14957 7 tri 7073 7031 7068
14958 7 tri 6977 6931 6951
14959 7 tri 6947 6909 6892
14960 7 tri 6953 6903 6909
14961 7 tri 6931 6947 6892
14962 7 tri 6994 6990 6947
14963 7 tri 6875 6931 6892
14964 7 tri 7044 6995 7008
14965 7 tri 6893 6951 6931
14966 7 tri 6893 6900 6951
14967 7 tri 6995 7002 6951
14968 7 tri 6994 6947 6977
14969 7 tri 6977 7002 7031
14970 7 tri 6977 6951 7002
14971 7 tri 6996 6968 6940
14972 7 tri 7008 6995 6968
14973 7 tri 7068 7039 7081
14974 7 tri 7068 7031 7039
14975 7 tri 6968 6912 6894
14976 7 tri 6968 6949 6912
14977 7 tri 6912 6949 6900
14978 7 tri 6968 6995 6949
14979 7 tri 6870 6898 6894
14980 7 tri 6870 6869 6898
14981 7 tri 6920 6954 6898
14982 7 tri 6964 7017 7000
14983 7 tri 7000 6996 6954
14984 7 tri 7087 7091 7129
14985 7 tri 6964 7000 6954
14986 7 tri 7017 7054 7000
14987 7 tri 7000 7042 6996
14988 7 tri 7000 7054 7042
14989 7 tri 7091 7087 7042
14990 7 tri 7044 7039 6995
14991 7 tri 7085 7044 7047
14992 7 tri 7081 7039 7044
14993 7 tri 7081 7085 7120
14994 7 tri 7081 7044 7085
14995 7 tri 7182 7150 7158
14996 7 tri 7150 7112 7120
14997 7 tri 7129 7127 7087
14998 7 tri 7158 7120 7127
14999 7 tri 7047 7087 7085
15000 7 tri 7047 7042 7087
15001 7 tri 7168 7129 7133
15002 7 tri 7166 7198 7158
15003 7 tri 7182 7169 7150
15004 7 tri 7151 7134 7116
15005 7 tri 7169 7151 7138
15006 7 tri 7178 7186 7160
15007 7 tri 7178 7160 7151
15008 7 tri 7186 7175 7160
15009 7 tri 7213 7201 7178
15010 7 tri 7213 7227 7201
15011 7 tri 7216 7240 7220
15012 7 tri 7216 7201 7227
15013 7 tri 7244 7227 7213
15014 7 tri 7244 7271 7252
15015 7 tri 7196 7228 7213
15016 7 tri 7285 7301 7271
15017 7 tri 7228 7259 7244
15018 7 tri 7289 7310 7304
15019 7 tri 7301 7292 7271
15020 7 tri 7301 7320 7292
15021 7 tri 7348 7331 7359
15022 7 tri 7320 7301 7331
15023 7 tri 7378 7351 7358
15024 7 tri 7320 7331 7348
15025 7 tri 7261 7266 7289
15026 7 tri 7266 7252 7271
15027 7 tri 7320 7335 7310
15028 7 tri 7358 7379 7385
15029 7 tri 7244 7252 7227
15030 7 tri 7271 7292 7266
15031 7 tri 7280 7261 7289
15032 7 tri 7240 7252 7266
15033 7 tri 4398 7261 7280
15034 7 tri 7242 4360 7220
15035 7 tri 7304 7280 7289
15036 7 tri 7280 7304 4418
15037 7 tri 7310 7335 7328
15038 7 tri 4436 7328 4455
15039 7 tri 7304 7310 7328
15040 7 tri 4418 7304 4436
15041 7 tri 7328 7335 7351
15042 7 tri 4398 4378 7261
15043 7 tri 4418 4398 7280
15044 7 tri 7220 4337 7197
15045 7 tri 7220 4360 4337
15046 7 tri 7220 7240 7242
15047 7 tri 7175 7186 7197
15048 7 tri 7261 7242 7240
15049 7 tri 4378 4360 7242
15050 7 tri 7175 4295 7147
15051 7 tri 7160 7175 7147
15052 7 tri 7197 4317 7175
15053 7 tri 4295 4267 7147
15054 7 tri 7175 4317 4295
15055 7 tri 7197 4337 4317
15056 7 tri 7426 4530 4512
15057 7 tri 7541 7574 4605
15058 7 tri 7610 4644 4624
15059 7 tri 7594 7574 7560
15060 7 tri 7610 4624 7574
15061 7 tri 7613 7632 7594
15062 7 tri 7730 7744 7768
15063 7 tri 7431 7450 7426
15064 7 tri 7464 7483 7450
15065 7 tri 7511 7483 7491
15066 7 tri 7511 4568 7483
15067 7 tri 7511 4585 4568
15068 7 tri 7541 4585 7511
15069 7 tri 7541 4605 4585
15070 7 tri 7351 7378 4474
15071 7 tri 7400 4512 4494
15072 7 tri 7450 4530 7426
15073 7 tri 7450 4550 4530
15074 7 tri 4455 7351 4474
15075 7 tri 4455 7328 7351
15076 7 tri 7385 7378 7358
15077 7 tri 4494 4474 7378
15078 7 tri 7335 7358 7351
15079 7 tri 7348 7379 7358
15080 7 tri 7406 7385 7379
15081 7 tri 7400 4494 7378
15082 7 tri 7406 7400 7385
15083 7 tri 7426 4512 7400
15084 7 tri 7441 7473 7464
15085 7 tri 7464 7491 7483
15086 7 tri 7406 7441 7431
15087 7 tri 7473 7491 7464
15088 7 tri 7431 7441 7464
15089 7 tri 7491 7505 7526
15090 7 tri 7400 7406 7431
15091 7 tri 7406 7379 7389
15092 7 tri 7379 7359 7389
15093 7 tri 7446 7473 7441
15094 7 tri 7313 7343 7331
15095 7 tri 7436 7424 7460
15096 7 tri 7406 7389 7417
15097 7 tri 7401 7380 7424
15098 7 tri 7406 7417 7441
15099 7 tri 7436 7401 7424
15100 7 tri 7417 7446 7441
15101 7 tri 7417 7389 7412
15102 7 tri 7446 7488 7473
15103 7 tri 7553 7544 7595
15104 7 tri 7553 7567 7530
15105 7 tri 7543 7560 7526
15106 7 tri 7543 7505 7530
15107 7 tri 7491 7473 7505
15108 7 tri 7567 7543 7530
15109 7 tri 7578 7560 7543
15110 7 tri 7613 7594 7578
15111 7 tri 7610 7574 7594
15112 7 tri 7567 7606 7578
15113 7 tri 7643 7652 7613
15114 7 tri 7513 7553 7530
15115 7 tri 7578 7543 7567
15116 7 tri 7578 7606 7613
15117 7 tri 7595 7629 7645
15118 7 tri 7615 7629 7586
15119 7 tri 7606 7567 7595
15120 7 tri 7488 7513 7530
15121 7 tri 7442 7424 7394
15122 7 tri 7474 7500 7513
15123 7 tri 7595 7567 7553
15124 7 tri 7456 7494 7442
15125 7 tri 7544 7553 7513
15126 7 tri 7565 7544 7523
15127 7 tri 7586 7595 7544
15128 7 tri 7544 7565 7586
15129 7 tri 7597 7634 7655
15130 7 tri 7586 7629 7595
15131 7 tri 7663 7655 7708
15132 7 tri 7565 7539 7597
15133 7 tri 7568 7569 7612
15134 7 tri 7710 7697 7665
15135 7 tri 7568 7508 7522
15136 7 tri 7521 7569 7522
15137 7 tri 7521 7525 7575
15138 7 tri 7597 7568 7634
15139 7 tri 7569 7619 7612
15140 7 tri 7465 7508 7456
15141 7 tri 7522 7569 7568
15142 7 tri 7634 7568 7612
15143 7 tri 7597 7539 7568
15144 7 tri 7615 7565 7597
15145 7 tri 7494 7456 7508
15146 7 tri 7586 7565 7615
15147 7 tri 7523 7539 7565
15148 7 tri 7368 7414 7411
15149 7 tri 7508 7539 7494
15150 7 tri 7523 7494 7539
15151 7 tri 7412 7436 7446
15152 7 tri 7411 7414 7456
15153 7 tri 7467 7521 7522
15154 7 tri 7414 7415 7465
15155 7 tri 7416 7469 7467
15156 7 tri 7281 7291 7321
15157 7 tri 7465 7456 7414
15158 7 tri 7416 7415 7365
15159 7 tri 7467 7465 7415
15160 7 tri 7336 7353 7380
15161 7 tri 7411 7456 7442
15162 7 tri 7475 7442 7494
15163 7 tri 7394 7411 7442
15164 7 tri 7474 7446 7436
15165 7 tri 7380 7394 7424
15166 7 tri 7442 7475 7424
15167 7 tri 7500 7544 7513
15168 7 tri 7500 7475 7523
15169 7 tri 7460 7424 7475
15170 7 tri 7475 7500 7460
15171 7 tri 7523 7544 7500
15172 7 tri 7417 7412 7446
15173 7 tri 7389 7359 7382
15174 7 tri 7474 7436 7460
15175 7 tri 7412 7382 7401
15176 7 tri 7389 7382 7412
15177 7 tri 7347 7319 7336
15178 7 tri 7412 7401 7436
15179 7 tri 7373 7343 7347
15180 7 tri 7285 7313 7301
15181 7 tri 7319 7343 7313
15182 7 tri 7359 7343 7382
15183 7 tri 7359 7331 7343
15184 7 tri 7380 7347 7336
15185 7 tri 7380 7401 7373
15186 7 tri 7380 7373 7347
15187 7 tri 7401 7382 7373
15188 7 tri 7198 7206 7235
15189 7 tri 7307 7336 7299
15190 7 tri 7288 7299 7319
15191 7 tri 7307 7321 7353
15192 7 tri 7299 7267 7272
15193 7 tri 7259 7285 7271
15194 7 tri 7244 7259 7271
15195 7 tri 7288 7313 7285
15196 7 tri 7182 7215 7196
15197 7 tri 7267 7288 7259
15198 7 tri 7215 7245 7228
15199 7 tri 7288 7285 7259
15200 7 tri 7150 7169 7138
15201 7 tri 7196 7178 7169
15202 7 tri 7120 7158 7150
15203 7 tri 7198 7215 7182
15204 7 tri 7129 7166 7127
15205 7 tri 7198 7182 7158
15206 7 tri 7168 7166 7129
15207 7 tri 7168 7206 7166
15208 7 tri 7196 7215 7228
15209 7 tri 7198 7235 7215
15210 7 tri 7228 7245 7259
15211 7 tri 7215 7235 7245
15212 7 tri 7281 7243 7248
15213 7 tri 7272 7235 7243
15214 7 tri 7307 7281 7321
15215 7 tri 7272 7243 7281
15216 7 tri 7132 7170 7133
15217 7 tri 7208 7206 7168
15218 7 tri 7243 7206 7208
15219 7 tri 7243 7235 7206
15220 7 tri 7168 7170 7208
15221 7 tri 7132 7135 7171
15222 7 tri 7132 7171 7170
15223 7 tri 7163 7115 7152
15224 7 tri 7231 7274 7238
15225 7 tri 7209 7208 7170
15226 7 tri 7247 7209 7204
15227 7 tri 7247 7248 7209
15228 7 tri 7317 7282 7274
15229 7 tri 7238 7204 7195
15230 7 tri 7369 7332 7326
15231 7 tri 7369 7368 7332
15232 7 tri 7248 7291 7281
15233 7 tri 7282 7326 7291
15234 7 tri 7272 7307 7299
15235 7 tri 7272 7281 7307
15236 7 tri 7307 7353 7336
15237 7 tri 7321 7368 7353
15238 7 tri 7394 7368 7411
15239 7 tri 7369 7326 7365
15240 7 tri 7321 7332 7368
15241 7 tri 7321 7291 7332
15242 7 tri 7414 7369 7415
15243 7 tri 7414 7368 7369
15244 7 tri 7369 7365 7415
15245 7 tri 7326 7282 7317
15246 7 tri 7407 7367 7352
15247 7 tri 7366 7318 7367
15248 7 tri 7415 7416 7467
15249 7 tri 7366 7367 7418
15250 7 tri 7180 7199 7221
15251 7 tri 7279 7315 7318
15252 7 tri 7222 7263 7241
15253 7 tri 7352 7303 7341
15254 7 tri 7195 7187 7231
15255 7 tri 7268 7318 7274
15256 7 tri 7318 7317 7274
15257 7 tri 7318 7366 7317
15258 7 tri 7171 7163 7204
15259 7 tri 7187 7221 7231
15260 7 tri 7282 7238 7274
15261 7 tri 7247 7204 7238
15262 7 tri 7163 7152 7195
15263 7 tri 7115 7110 7152
15264 7 tri 7204 7163 7195
15265 7 tri 7135 7115 7163
15266 7 tri 7113 7141 7101
15267 7 tri 7180 7221 7187
15268 7 tri 7180 7144 7141
15269 7 tri 7152 7110 7144
15270 7 tri 7157 7180 7141
15271 7 tri 7199 7222 7241
15272 7 tri 7195 7231 7238
15273 7 tri 7221 7268 7231
15274 7 tri 7223 7222 7181
15275 7 tri 7223 7263 7222
15276 7 tri 7241 7263 7279
15277 7 tri 7223 7229 7262
15278 7 tri 7117 7161 7130
15279 7 tri 7193 7181 7161
15280 7 tri 7157 7199 7180
15281 7 tri 7157 7181 7199
15282 7 tri 7193 7153 7188
15283 7 tri 7161 7117 7153
15284 7 tri 7262 7229 7260
15285 7 tri 7223 7193 7229
15286 7 tri 7312 7297 7260
15287 7 tri 7263 7223 7262
15288 7 tri 7345 7341 7297
15289 7 tri 7297 7303 7262
15290 7 tri 7312 7345 7297
15291 7 tri 7428 7432 7468
15292 7 tri 7357 7345 7312
15293 7 tri 7357 7403 7393
15294 7 tri 7263 7303 7315
15295 7 tri 7263 7262 7303
15296 7 tri 7318 7315 7367
15297 7 tri 7279 7263 7315
15298 7 tri 7315 7352 7367
15299 7 tri 7315 7303 7352
15300 7 tri 7386 7407 7352
15301 7 tri 7549 7501 7550
15302 7 tri 7341 7386 7352
15303 7 tri 7384 7432 7428
15304 7 tri 7357 7393 7345
15305 7 tri 7403 7439 7393
15306 7 tri 7468 7432 7478
15307 7 tri 7384 7393 7432
15308 7 tri 7439 7478 7432
15309 7 tri 7485 7524 7518
15310 7 tri 7501 7468 7516
15311 7 tri 7518 7554 7557
15312 7 tri 7478 7518 7516
15313 7 tri 7478 7485 7518
15314 7 tri 7550 7501 7516
15315 7 tri 7428 7386 7384
15316 7 tri 7549 7499 7501
15317 7 tri 7451 7418 7407
15318 7 tri 7501 7453 7468
15319 7 tri 7407 7386 7428
15320 7 tri 7428 7453 7407
15321 7 tri 7428 7468 7453
15322 7 tri 7477 7469 7418
15323 7 tri 7416 7366 7418
15324 7 tri 7501 7499 7453
15325 7 tri 7477 7525 7469
15326 7 tri 7418 7469 7416
15327 7 tri 7418 7451 7477
15328 7 tri 7504 7534 7477
15329 7 tri 7525 7521 7469
15330 7 tri 7534 7525 7477
15331 7 tri 7672 7680 7714
15332 7 tri 7451 7504 7477
15333 7 tri 7570 7582 7534
15334 7 tri 7534 7504 7570
15335 7 tri 7451 7453 7499
15336 7 tri 7499 7504 7451
15337 7 tri 7499 7547 7504
15338 7 tri 7593 7547 7549
15339 7 tri 7570 7504 7547
15340 7 tri 7590 7626 7589
15341 7 tri 7642 7614 7593
15342 7 tri 7534 7582 7525
15343 7 tri 7672 7714 7715
15344 7 tri 7525 7582 7575
15345 7 tri 7570 7593 7614
15346 7 tri 7575 7619 7569
15347 7 tri 7575 7582 7625
15348 7 tri 7575 7625 7619
15349 7 tri 7582 7614 7627
15350 7 tri 7691 7661 7642
15351 7 tri 7627 7625 7582
15352 7 tri 7661 7659 7614
15353 7 tri 7659 7680 7627
15354 7 tri 7642 7631 7676
15355 7 tri 7589 7549 7550
15356 7 tri 7660 7631 7626
15357 7 tri 7642 7593 7631
15358 7 tri 7590 7589 7550
15359 7 tri 7547 7499 7549
15360 7 tri 7631 7589 7626
15361 7 tri 7631 7593 7589
15362 7 tri 7590 7557 7602
15363 7 tri 7516 7518 7557
15364 7 tri 7557 7585 7602
15365 7 tri 7554 7592 7585
15366 7 tri 7557 7590 7550
15367 7 tri 7602 7638 7590
15368 7 tri 7679 7638 7640
15369 7 tri 7662 7693 7660
15370 7 tri 7707 7721 7676
15371 7 tri 7734 7761 7776
15372 7 tri 7676 7721 7691
15373 7 tri 7830 7813 7798
15374 7 tri 7741 7761 7721
15375 7 tri 7741 7771 7782
15376 7 tri 7709 7734 7753
15377 7 tri 7813 7778 7798
15378 7 tri 7734 7776 7753
15379 7 tri 7761 7782 7800
15380 7 tri 7642 7661 7614
15381 7 tri 7691 7709 7661
15382 7 tri 7761 7734 7721
15383 7 tri 7753 7740 7709
15384 7 tri 7614 7659 7627
15385 7 tri 7661 7709 7659
15386 7 tri 7659 7709 7701
15387 7 tri 7691 7734 7709
15388 7 tri 7625 7672 7619
15389 7 tri 7680 7701 7731
15390 7 tri 7625 7680 7672
15391 7 tri 7625 7627 7680
15392 7 tri 7757 7715 7714
15393 7 tri 7808 7795 7760
15394 7 tri 7731 7765 7714
15395 7 tri 7766 7808 7760
15396 7 tri 7798 7819 7830
15397 7 tri 7854 7813 7830
15398 7 tri 7740 7777 7731
15399 7 tri 7854 7830 1085
15400 7 tri 7731 7777 7765
15401 7 tri 7740 7753 7778
15402 7 tri 7840 7806 7826
15403 7 tri 7798 7753 7776
15404 7 tri 7801 7805 7757
15405 7 tri 7801 7806 7840
15406 7 tri 7765 7806 7801
15407 7 tri 7777 7813 7826
15408 7 tri 7801 7836 7805
15409 7 tri 7873 7900 7911
15410 7 tri 7882 7840 7862
15411 7 tri 7864 7836 7840
15412 7 tri 7840 7826 7862
15413 7 tri 7806 7777 7826
15414 7 tri 7813 7854 7826
15415 7 tri 1085 1083 7854
15416 7 tri 7800 1088 7819
15417 7 tri 1091 7837 7848
15418 7 tri 1088 1086 7819
15419 7 tri 7880 1085 1086
15420 7 tri 7777 7778 7813
15421 7 tri 7777 7740 7778
15422 7 tri 7753 7798 7778
15423 7 tri 7776 7819 7798
15424 7 tri 7800 7782 1091
15425 7 tri 7761 7741 7782
15426 7 tri 1088 7800 1091
15427 7 tri 7819 7776 7800
15428 7 tri 1091 7848 1088
15429 7 tri 7837 7860 7871
15430 7 tri 1086 7870 7880
15431 7 tri 7848 7871 7870
15432 7 tri 7963 7968 7931
15433 7 tri 7963 7931 7933
15434 7 tri 7978 7986 7952
15435 7 tri 7952 7909 7935
15436 7 tri 7906 1082 1083
15437 7 tri 7931 7968 7946
15438 7 tri 7909 7906 1083
15439 7 tri 7933 7931 7906
15440 7 tri 7939 7978 7935
15441 7 tri 7963 7986 7993
15442 7 tri 7933 7952 7963
15443 7 tri 8081 8074 8117
15444 7 tri 7978 7952 7935
15445 7 tri 7986 7963 7952
15446 7 tri 7973 7978 7939
15447 7 tri 8011 8021 7978
15448 7 tri 7978 8021 7986
15449 7 tri 8021 8046 8071
15450 7 tri 7986 8021 8019
15451 7 tri 8163 8145 8189
15452 7 tri 8011 8046 8021
15453 7 tri 8143 8089 8126
15454 7 tri 8055 8071 8096
15455 7 tri 8071 8091 8115
15456 7 tri 8034 8055 8074
15457 7 tri 8019 8021 8055
15458 7 tri 8192 8146 8162
15459 7 tri 8074 8055 8096
15460 7 tri 8055 8034 8019
15461 7 tri 8007 7968 7993
15462 7 tri 8042 8034 8074
15463 7 tri 7993 8019 8034
15464 7 tri 7968 8007 7981
15465 7 tri 7993 8034 8007
15466 7 tri 7981 8013 7982
15467 7 tri 8007 8034 8042
15468 7 tri 8047 8016 8013
15469 7 tri 8013 8007 8042
15470 7 tri 8085 8051 8047
15471 7 tri 8042 8074 8081
15472 7 tri 8112 8085 8081
15473 7 tri 8020 8006 7989
15474 7 tri 8130 8103 8085
15475 7 tri 8072 8051 8085
15476 7 tri 8042 8047 8013
15477 7 tri 8051 8040 8020
15478 7 tri 8085 8047 8081
15479 7 tri 8051 8016 8047
15480 7 tri 7945 7929 1077
15481 7 tri 7873 7836 7864
15482 7 tri 1079 7957 1078
15483 7 tri 1079 1080 7946
15484 7 tri 1082 1080 7882
15485 7 tri 1082 7931 1080
15486 7 tri 7931 7946 1080
15487 7 tri 7968 7981 7946
15488 7 tri 7882 7900 7864
15489 7 tri 7908 7929 7945
15490 7 tri 1079 7911 7900
15491 7 tri 1079 1078 7911
15492 7 tri 7929 7896 7911
15493 7 tri 7843 7808 7805
15494 7 tri 7869 7896 7908
15495 7 tri 7873 7911 7896
15496 7 tri 7989 1077 7982
15497 7 tri 1076 7959 7945
15498 7 tri 7944 7922 7959
15499 7 tri 7908 7896 7929
15500 7 tri 7979 7947 7976
15501 7 tri 7979 7994 7961
15502 7 tri 8040 8024 8006
15503 7 tri 8039 8053 1073
15504 7 tri 8006 8024 1075
15505 7 tri 7984 8012 8000
15506 7 tri 8016 7989 7982
15507 7 tri 8006 1076 7989
15508 7 tri 8051 8020 8016
15509 7 tri 8040 8006 8020
15510 7 tri 1075 8024 1074
15511 7 tri 8040 8060 8024
15512 7 tri 8103 8094 8072
15513 7 tri 8094 8060 8072
15514 7 tri 8129 8127 8094
15515 7 tri 8101 8073 8094
15516 7 tri 8112 8130 8085
15517 7 tri 8166 8164 8129
15518 7 tri 8066 8053 8087
15519 7 tri 1072 1073 8053
15520 7 tri 8087 8073 8101
15521 7 tri 8053 8039 8073
15522 7 tri 8024 8039 1074
15523 7 tri 1072 8012 1073
15524 7 tri 1074 8039 1073
15525 7 tri 8024 8060 8039
15526 7 tri 8083 8066 8087
15527 7 tri 1071 1072 8066
15528 7 tri 8049 1070 1069
15529 7 tri 1071 8083 1070
15530 7 tri 8108 8083 8087
15531 7 tri 8093 1070 8083
15532 7 tri 8101 8123 8087
15533 7 tri 8148 8186 8183
15534 7 tri 8067 8029 8049
15535 7 tri 1070 8093 1069
15536 7 tri 8093 8105 1069
15537 7 tri 8150 8179 8171
15538 7 tri 7932 7966 7975
15539 7 tri 8028 1071 8035
15540 7 tri 8067 8049 1069
15541 7 tri 8035 1070 8049
15542 7 tri 7938 7961 7984
15543 7 tri 8012 8028 8000
15544 7 tri 7990 8015 8029
15545 7 tri 8000 8035 8015
15546 7 tri 1074 7994 7979
15547 7 tri 1073 8012 7994
15548 7 tri 8000 8028 8035
15549 7 tri 8012 1072 8028
15550 7 tri 8012 7984 7994
15551 7 tri 7984 7966 7938
15552 7 tri 7966 7984 8000
15553 7 tri 7961 7994 7984
15554 7 tri 8015 7975 8000
15555 7 tri 7932 7901 7938
15556 7 tri 7948 7975 7990
15557 7 tri 7966 8000 7975
15558 7 tri 7856 7872 7898
15559 7 tri 7890 7932 7904
15560 7 tri 7948 7932 7975
15561 7 tri 7890 7901 7932
15562 7 tri 7764 7763 7807
15563 7 tri 7663 7629 7615
15564 7 tri 7810 7763 7754
15565 7 tri 7874 7868 7907
15566 7 tri 7810 7754 7792
15567 7 tri 7831 7846 7868
15568 7 tri 7901 7874 7918
15569 7 tri 7831 7795 7846
15570 7 tri 7961 7938 7918
15571 7 tri 7890 7857 7901
15572 7 tri 7932 7938 7966
15573 7 tri 7901 7918 7938
15574 7 tri 7922 7944 7907
15575 7 tri 7947 7918 7907
15576 7 tri 7907 7944 7947
15577 7 tri 7907 7886 7922
15578 7 tri 7959 7922 7945
15579 7 tri 7886 7869 7908
15580 7 tri 7908 7922 7886
15581 7 tri 7908 7945 7922
15582 7 tri 7896 7869 7873
15583 7 tri 7869 7846 7843
15584 7 tri 7846 7869 7886
15585 7 tri 7843 7873 7869
15586 7 tri 7808 7846 7795
15587 7 tri 7808 7843 7846
15588 7 tri 7835 7831 7874
15589 7 tri 7846 7886 7868
15590 7 tri 7831 7792 7795
15591 7 tri 7835 7857 7810
15592 7 tri 7874 7831 7868
15593 7 tri 7835 7792 7831
15594 7 tri 7745 7760 7795
15595 7 tri 7715 7757 7766
15596 7 tri 7715 7766 7760
15597 7 tri 7757 7805 7766
15598 7 tri 7760 7745 7710
15599 7 tri 7634 7612 7665
15600 7 tri 7664 7710 7665
15601 7 tri 7715 7760 7710
15602 7 tri 7708 7655 7697
15603 7 tri 7655 7634 7697
15604 7 tri 7792 7745 7795
15605 7 tri 7697 7710 7745
15606 7 tri 7745 7754 7697
15607 7 tri 7615 7597 7655
15608 7 tri 7712 7725 7681
15609 7 tri 7712 7681 7663
15610 7 tri 7835 7810 7792
15611 7 tri 7708 7697 7754
15612 7 tri 7853 7810 7857
15613 7 tri 7814 7825 7856
15614 7 tri 7754 7763 7708
15615 7 tri 7810 7853 7807
15616 7 tri 7810 7807 7763
15617 7 tri 7853 7825 7807
15618 7 tri 7655 7663 7615
15619 7 tri 7708 7763 7712
15620 7 tri 7708 7712 7663
15621 7 tri 7763 7764 7712
15622 7 tri 7692 7645 7681
15623 7 tri 7629 7663 7681
15624 7 tri 7606 7643 7613
15625 7 tri 7606 7595 7645
15626 7 tri 7692 7682 7645
15627 7 tri 7643 7606 7645
15628 7 tri 7689 7682 7723
15629 7 tri 7643 7645 7682
15630 7 tri 7668 7689 7706
15631 7 tri 7726 7762 7744
15632 7 tri 7725 7692 7681
15633 7 tri 7725 7739 7692
15634 7 tri 7764 7779 7725
15635 7 tri 7779 7814 7772
15636 7 tri 7825 7779 7807
15637 7 tri 7725 7712 7764
15638 7 tri 7725 7779 7739
15639 7 tri 7764 7807 7779
15640 7 tri 7872 7856 7825
15641 7 tri 7785 7803 7768
15642 7 tri 7853 7872 7825
15643 7 tri 7904 7920 7872
15644 7 tri 7825 7814 7779
15645 7 tri 7856 7876 7844
15646 7 tri 7856 7844 7814
15647 7 tri 7865 7897 4800
15648 7 tri 7779 7772 7739
15649 7 tri 7814 7844 7802
15650 7 tri 7772 7802 7762
15651 7 tri 7772 7814 7802
15652 7 tri 4699 7730 4720
15653 7 tri 7726 7723 7762
15654 7 tri 7802 7785 7762
15655 7 tri 7802 7844 7823
15656 7 tri 7876 7861 7844
15657 7 tri 7844 7861 7823
15658 7 tri 7876 7902 7861
15659 7 tri 7823 7832 7803
15660 7 tri 7861 7897 7865
15661 7 tri 7832 7861 7865
15662 7 tri 7730 7768 4720
15663 7 tri 7744 7785 7768
15664 7 tri 4720 7768 4736
15665 7 tri 4644 7647 4662
15666 7 tri 7647 7632 7668
15667 7 tri 7684 7668 7706
15668 7 tri 7706 7744 7730
15669 7 tri 4699 7684 7730
15670 7 tri 7668 7652 7689
15671 7 tri 7706 7726 7744
15672 7 tri 7689 7723 7726
15673 7 tri 7613 7652 7632
15674 7 tri 7643 7682 7652
15675 7 tri 7730 7684 7706
15676 7 tri 7632 7652 7668
15677 7 tri 4662 7647 7684
15678 7 tri 4644 7610 7647
15679 7 tri 7647 7668 7684
15680 7 tri 4682 4662 7684
15681 7 tri 4699 4682 7684
15682 7 tri 7832 4778 4755
15683 7 tri 7865 4778 7832
15684 7 tri 7865 4800 4778
15685 7 tri 7974 7991 7958
15686 7 tri 4856 7991 4878
15687 7 tri 8048 4919 4896
15688 7 tri 8109 4942 8082
15689 7 tri 8088 8109 8082
15690 7 tri 8057 8088 8082
15691 7 tri 4992 8170 5019
15692 7 tri 8080 8102 8070
15693 7 tri 8121 8109 8088
15694 7 tri 8070 8102 8088
15695 7 tri 8080 8061 8092
15696 7 tri 8057 8032 8070
15697 7 tri 8057 8048 8022
15698 7 tri 8088 8057 8070
15699 7 tri 8022 4896 4878
15700 7 tri 8082 8048 8057
15701 7 tri 8082 4919 8048
15702 7 tri 8082 4942 4919
15703 7 tri 8022 7991 8004
15704 7 tri 8022 4878 7991
15705 7 tri 7936 7924 7902
15706 7 tri 7958 4836 7924
15707 7 tri 7936 7902 7919
15708 7 tri 7897 7861 7902
15709 7 tri 7940 7962 7919
15710 7 tri 7958 7924 7936
15711 7 tri 7991 7974 8004
15712 7 tri 7936 7919 7962
15713 7 tri 8032 8022 8004
15714 7 tri 8048 4896 8022
15715 7 tri 8045 8009 8029
15716 7 tri 7990 7975 8015
15717 7 tri 8070 8041 8080
15718 7 tri 8002 7983 8025
15719 7 tri 7983 7962 7940
15720 7 tri 8002 7974 7962
15721 7 tri 8009 7983 7965
15722 7 tri 8002 7962 7983
15723 7 tri 7872 7920 7898
15724 7 tri 7904 7948 7920
15725 7 tri 7920 7948 7965
15726 7 tri 7904 7932 7948
15727 7 tri 7965 7990 8009
15728 7 tri 7965 7948 7990
15729 7 tri 7990 8029 8009
15730 7 tri 8015 8049 8029
15731 7 tri 8079 8045 8067
15732 7 tri 8025 8009 8045
15733 7 tri 1068 8067 1069
15734 7 tri 8045 8029 8067
15735 7 tri 8032 8041 8070
15736 7 tri 8032 8002 8041
15737 7 tri 8041 8061 8080
15738 7 tri 8025 8045 8061
15739 7 tri 1067 8092 8079
15740 7 tri 8092 8061 8079
15741 7 tri 8080 8092 8113
15742 7 tri 8131 8105 8122
15743 7 tri 8079 1068 1067
15744 7 tri 8079 8067 1068
15745 7 tri 8105 8119 1068
15746 7 tri 8191 8171 8206
15747 7 tri 8156 1066 8140
15748 7 tri 1067 1068 8119
15749 7 tri 8142 8133 8113
15750 7 tri 8142 8175 8168
15751 7 tri 1067 8140 1066
15752 7 tri 8123 8148 8108
15753 7 tri 8171 8156 8140
15754 7 tri 8259 8243 8290
15755 7 tri 8119 8150 8140
15756 7 tri 8203 8247 8243
15757 7 tri 8140 8150 8171
15758 7 tri 8119 8105 8131
15759 7 tri 8206 8179 8217
15760 7 tri 8150 8131 8155
15761 7 tri 8179 8206 8171
15762 7 tri 8257 8299 8293
15763 7 tri 8217 8249 8206
15764 7 tri 8321 8349 8368
15765 7 tri 8217 8257 8249
15766 7 tri 8379 8392 6821
15767 7 tri 8321 8300 8349
15768 7 tri 8321 8267 8300
15769 7 tri 8211 8227 8247
15770 7 tri 8249 8300 8267
15771 7 tri 8370 8321 8368
15772 7 tri 8292 8267 8321
15773 7 tri 8171 8191 8156
15774 7 tri 8227 8267 8247
15775 7 tri 8206 8227 8191
15776 7 tri 8206 8249 8227
15777 7 tri 8168 8203 8185
15778 7 tri 8211 8247 8203
15779 7 tri 8168 8175 8203
15780 7 tri 8191 8227 8211
15781 7 tri 8247 8289 8243
15782 7 tri 8292 8336 8289
15783 7 tri 8336 8331 8289
15784 7 tri 8336 8380 8331
15785 7 tri 8331 8332 8290
15786 7 tri 8406 6828 5289
15787 7 tri 8290 8332 8306
15788 7 tri 8331 8375 8332
15789 7 tri 8170 8185 8198
15790 7 tri 8203 8243 8220
15791 7 tri 8243 8259 8220
15792 7 tri 8290 8306 8259
15793 7 tri 8220 8185 8203
15794 7 tri 8220 8198 8185
15795 7 tri 8228 8266 5083
15796 7 tri 8121 8133 8152
15797 7 tri 8175 8211 8203
15798 7 tri 8133 8142 8168
15799 7 tri 8156 8191 8175
15800 7 tri 8156 8142 1066
15801 7 tri 8102 8080 8113
15802 7 tri 1066 8142 8113
15803 7 tri 8156 8175 8142
15804 7 tri 8102 8121 8088
15805 7 tri 8102 8133 8121
15806 7 tri 8152 8133 8168
15807 7 tri 8102 8113 8133
15808 7 tri 8109 8121 8141
15809 7 tri 8109 8141 4966
15810 7 tri 8170 8198 5019
15811 7 tri 8152 8170 8141
15812 7 tri 8152 8185 8170
15813 7 tri 8198 5047 5019
15814 7 tri 4966 8141 4992
15815 7 tri 8220 8228 8198
15816 7 tri 8220 8259 8228
15817 7 tri 5083 8266 5116
15818 7 tri 5047 8228 5083
15819 7 tri 8332 8381 8347
15820 7 tri 5289 5195 8406
15821 7 tri 5153 8347 5195
15822 7 tri 6827 8375 6826
15823 7 tri 8332 8347 8306
15824 7 tri 8406 5195 8347
15825 7 tri 8347 8381 8406
15826 7 tri 8332 8375 8381
15827 7 tri 8370 8380 8336
15828 7 tri 6825 6826 8380
15829 7 tri 8321 8370 8336
15830 7 tri 8368 6823 6824
15831 7 tri 8368 8349 8404
15832 7 tri 8300 8293 8349
15833 7 tri 8348 8299 8309
15834 7 tri 8387 8410 8355
15835 7 tri 8382 6815 6816
15836 7 tri 8399 6814 6815
15837 7 tri 8367 8317 8376
15838 7 tri 8387 6818 6819
15839 7 tri 8367 6817 6818
15840 7 tri 8379 8404 8349
15841 7 tri 6821 8392 6820
15842 7 tri 6820 8410 6819
15843 7 tri 6822 8404 8379
15844 7 tri 6822 8379 6821
15845 7 tri 8349 8293 8339
15846 7 tri 6820 8392 8410
15847 7 tri 8379 8339 8392
15848 7 tri 8367 8387 8328
15849 7 tri 8410 8392 8348
15850 7 tri 6818 8387 8367
15851 7 tri 6819 8410 8387
15852 7 tri 8239 8278 8231
15853 7 tri 8355 8348 8309
15854 7 tri 8278 8328 8309
15855 7 tri 8317 8367 8328
15856 7 tri 8348 8339 8299
15857 7 tri 8379 8349 8339
15858 7 tri 8410 8348 8355
15859 7 tri 8392 8339 8348
15860 7 tri 8217 8183 8221
15861 7 tri 8179 8150 8155
15862 7 tri 8249 8257 8293
15863 7 tri 8217 8221 8257
15864 7 tri 8155 8131 8122
15865 7 tri 8150 8119 8131
15866 7 tri 8148 8155 8122
15867 7 tri 8183 8179 8155
15868 7 tri 8087 8123 8108
15869 7 tri 8129 8094 8103
15870 7 tri 8155 8148 8183
15871 7 tri 8122 8108 8148
15872 7 tri 8221 8186 8231
15873 7 tri 8148 8123 8157
15874 7 tri 8231 8264 8221
15875 7 tri 8231 8278 8264
15876 7 tri 8204 8164 8166
15877 7 tri 8157 8186 8148
15878 7 tri 8204 8195 8164
15879 7 tri 8239 8231 8195
15880 7 tri 8157 8127 8164
15881 7 tri 8101 8094 8127
15882 7 tri 8127 8157 8123
15883 7 tri 8195 8186 8157
15884 7 tri 8130 8166 8129
15885 7 tri 8164 8127 8129
15886 7 tri 8103 8130 8129
15887 7 tri 8258 8253 8297
15888 7 tri 8246 8239 8204
15889 7 tri 8239 8195 8204
15890 7 tri 8166 8213 8204
15891 7 tri 8172 8214 8213
15892 7 tri 8253 8258 8213
15893 7 tri 8294 8340 8337
15894 7 tri 8340 8294 8297
15895 7 tri 8246 8213 8258
15896 7 tri 8264 8278 8309
15897 7 tri 8239 8280 8278
15898 7 tri 8258 8294 8246
15899 7 tri 8317 8278 8280
15900 7 tri 8246 8294 8280
15901 7 tri 8258 8297 8294
15902 7 tri 6817 8376 6816
15903 7 tri 6817 8367 8376
15904 7 tri 8376 8382 6816
15905 7 tri 8340 8399 8382
15906 7 tri 8382 8399 6815
15907 7 tri 8340 8297 8351
15908 7 tri 8340 8351 8399
15909 7 tri 8297 8326 8351
15910 7 tri 8325 8388 8374
15911 7 tri 8325 8283 8341
15912 7 tri 6813 8393 8374
15913 7 tri 6814 8399 8393
15914 7 tri 8273 8295 8251
15915 7 tri 8295 8273 8323
15916 7 tri 8325 8341 8388
15917 7 tri 8323 8273 8305
15918 7 tri 8238 8283 8285
15919 7 tri 8295 8341 8283
15920 7 tri 8297 8285 8326
15921 7 tri 8253 8238 8285
15922 7 tri 8130 8146 8172
15923 7 tri 8210 8251 8238
15924 7 tri 8192 8214 8172
15925 7 tri 8192 8238 8214
15926 7 tri 8146 8130 8112
15927 7 tri 8172 8166 8130
15928 7 tri 8162 8146 8117
15929 7 tri 8192 8172 8146
15930 7 tri 8112 8117 8146
15931 7 tri 8074 8096 8117
15932 7 tri 8192 8162 8210
15933 7 tri 8117 8096 8138
15934 7 tri 8214 8238 8253
15935 7 tri 8192 8210 8238
15936 7 tri 8238 8251 8283
15937 7 tri 8210 8187 8230
15938 7 tri 8187 8207 8230
15939 7 tri 8354 8350 8304
15940 7 tri 8210 8230 8251
15941 7 tri 8207 8232 8256
15942 7 tri 8187 8138 8163
15943 7 tri 8162 8117 8138
15944 7 tri 8162 8187 8210
15945 7 tri 8162 8138 8187
15946 7 tri 8071 8115 8096
15947 7 tri 8071 8046 8091
15948 7 tri 8145 8163 8115
15949 7 tri 8207 8187 8163
15950 7 tri 8163 8189 8207
15951 7 tri 8178 8188 8222
15952 7 tri 8383 8395 8338
15953 7 tri 8207 8189 8232
15954 7 tri 8287 8256 8232
15955 7 tri 8287 8305 8256
15956 7 tri 8189 8219 8232
15957 7 tri 8305 8273 8256
15958 7 tri 8338 8353 8305
15959 7 tri 8395 6809 8394
15960 7 tri 8394 8323 8353
15961 7 tri 8341 8295 8323
15962 7 tri 8394 8353 8395
15963 7 tri 8323 8305 8353
15964 7 tri 6809 6810 8394
15965 7 tri 8388 8341 8372
15966 7 tri 8385 8333 8350
15967 7 tri 8385 8383 8333
15968 7 tri 8287 8338 8305
15969 7 tri 8333 8383 8338
15970 7 tri 8338 8395 8353
15971 7 tri 8383 6807 6808
15972 7 tri 8383 6808 8395
15973 7 tri 8372 8323 8394
15974 7 tri 6811 8372 6810
15975 7 tri 6812 8388 6811
15976 7 tri 6813 8374 6812
15977 7 tri 8365 8384 6803
15978 7 tri 6802 8391 6801
15979 7 tri 6801 8391 8373
15980 7 tri 8386 8324 8342
15981 7 tri 8386 6794 8364
15982 7 tri 8343 8403 8361
15983 7 tri 8366 8315 8362
15984 7 tri 8255 8291 8244
15985 7 tri 8366 6790 6791
15986 7 tri 6795 8364 6794
15987 7 tri 8369 8334 8397
15988 7 tri 8396 8371 8344
15989 7 tri 8270 8311 8334
15990 7 tri 8358 8397 8334
15991 7 tri 8358 8390 8397
15992 7 tri 8400 8386 8342
15993 7 tri 8324 8291 8342
15994 7 tri 8324 8386 8364
15995 7 tri 8400 6792 6793
15996 7 tri 6796 8390 6795
15997 7 tri 8358 8318 8390
15998 7 tri 6794 8386 6793
15999 7 tri 8366 8378 8322
16000 7 tri 8366 6791 8378
16001 7 tri 8386 8400 6793
16002 7 tri 8342 8345 8400
16003 7 tri 6788 8401 8361
16004 7 tri 8401 6788 6789
16005 7 tri 8362 8320 8401
16006 7 tri 8315 8274 8320
16007 7 tri 6789 8362 8401
16008 7 tri 8366 8322 8315
16009 7 tri 8362 8315 8320
16010 7 tri 8322 8345 8296
16011 7 tri 8400 8345 8378
16012 7 tri 8342 8291 8345
16013 7 tri 8233 8199 8236
16014 7 tri 8233 8236 8274
16015 7 tri 8322 8296 8269
16016 7 tri 8345 8291 8296
16017 7 tri 8274 8236 8277
16018 7 tri 8106 8058 8064
16019 7 tri 8269 8274 8315
16020 7 tri 8269 8233 8274
16021 7 tri 8260 8240 8215
16022 7 tri 8236 8199 8196
16023 7 tri 8296 8255 8269
16024 7 tri 8090 8058 8106
16025 7 tri 8244 8193 8216
16026 7 tri 8180 8182 8223
16027 7 tri 8223 8233 8269
16028 7 tri 8223 8182 8233
16029 7 tri 8075 8056 8110
16030 7 tri 8216 8255 8244
16031 7 tri 8149 8180 8193
16032 7 tri 8255 8296 8291
16033 7 tri 8324 8279 8291
16034 7 tri 8234 8200 8193
16035 7 tri 8223 8255 8216
16036 7 tri 8223 8269 8255
16037 7 tri 8167 8200 8209
16038 7 tri 8200 8234 8237
16039 7 tri 8318 8279 8324
16040 7 tri 8271 8234 8279
16041 7 tri 8244 8234 8193
16042 7 tri 8237 8209 8200
16043 7 tri 8279 8234 8244
16044 7 tri 8271 8237 8234
16045 7 tri 8205 8242 8197
16046 7 tri 8275 8301 8335
16047 7 tri 8245 8242 8205
16048 7 tri 8344 8298 8334
16049 7 tri 8241 8208 8197
16050 7 tri 8224 8188 8177
16051 7 tri 8284 8288 8241
16052 7 tri 8275 8224 8250
16053 7 tri 8245 8286 8242
16054 7 tri 8327 8344 8371
16055 7 tri 8241 8288 8250
16056 7 tri 8284 8330 8288
16057 7 tri 8242 8286 8284
16058 7 tri 8245 8270 8298
16059 7 tri 8334 8298 8270
16060 7 tri 8334 8369 8344
16061 7 tri 6800 8371 6799
16062 7 tri 8286 8298 8344
16063 7 tri 6797 8369 8397
16064 7 tri 8396 6799 8371
16065 7 tri 8369 8396 8344
16066 7 tri 6800 6801 8373
16067 7 tri 6798 8396 8369
16068 7 tri 6798 6799 8396
16069 7 tri 8330 8373 8391
16070 7 tri 8330 8327 8373
16071 7 tri 8373 8327 8371
16072 7 tri 8284 8286 8327
16073 7 tri 8330 8346 8288
16074 7 tri 8391 6802 8384
16075 7 tri 8384 8335 8346
16076 7 tri 8314 8275 8335
16077 7 tri 6805 8377 6804
16078 7 tri 8314 8335 8365
16079 7 tri 6803 8384 6802
16080 7 tri 8365 8335 8384
16081 7 tri 8409 8377 6805
16082 7 tri 6804 8377 8365
16083 7 tri 8409 8350 8354
16084 7 tri 6805 6806 8409
16085 7 tri 8304 8350 8303
16086 7 tri 8409 8385 8350
16087 7 tri 8377 8354 8314
16088 7 tri 8377 8409 8354
16089 7 tri 8262 8303 8287
16090 7 tri 8350 8333 8303
16091 7 tri 8224 8275 8265
16092 7 tri 8314 8354 8304
16093 7 tri 8288 8301 8250
16094 7 tri 8314 8304 8265
16095 7 tri 8250 8301 8275
16096 7 tri 8288 8346 8301
16097 7 tri 8265 8261 8222
16098 7 tri 8304 8303 8261
16099 7 tri 8224 8265 8222
16100 7 tri 8275 8314 8265
16101 7 tri 8261 8219 8222
16102 7 tri 8261 8262 8219
16103 7 tri 8219 8262 8232
16104 7 tri 8261 8303 8262
16105 7 tri 8189 8178 8219
16106 7 tri 8128 8091 8089
16107 7 tri 8011 8052 8046
16108 7 tri 8027 7992 7969
16109 7 tri 8115 8091 8145
16110 7 tri 8046 8052 8091
16111 7 tri 8011 8008 8052
16112 7 tri 7973 7939 7928
16113 7 tri 8143 8128 8089
16114 7 tri 8091 8052 8089
16115 7 tri 8145 8128 8178
16116 7 tri 8145 8091 8128
16117 7 tri 8177 8143 8126
16118 7 tri 8188 8178 8143
16119 7 tri 8154 8205 8197
16120 7 tri 8197 8208 8160
16121 7 tri 8208 8177 8160
16122 7 tri 8208 8224 8177
16123 7 tri 8107 8154 8116
16124 7 tri 8160 8126 8116
16125 7 tri 8062 8077 8107
16126 7 tri 8124 8169 8154
16127 7 tri 8062 8005 8023
16128 7 tri 8062 8116 8076
16129 7 tri 7992 8027 8043
16130 7 tri 8005 8062 8027
16131 7 tri 8008 8043 8052
16132 7 tri 8027 8076 8043
16133 7 tri 8062 8076 8027
16134 7 tri 8116 8126 8076
16135 7 tri 7913 7878 7916
16136 7 tri 7878 7847 7849
16137 7 tri 7955 7969 7921
16138 7 tri 8005 8027 7969
16139 7 tri 7851 7875 7881
16140 7 tri 7875 7917 7881
16141 7 tri 7969 7955 8005
16142 7 tri 7921 7917 7955
16143 7 tri 7812 7842 7849
16144 7 tri 7916 7921 7969
16145 7 tri 7791 7815 7842
16146 7 tri 7824 7850 7875
16147 7 tri 7804 7817 7847
16148 7 tri 7842 7881 7877
16149 7 tri 7842 7877 7849
16150 7 tri 7881 7921 7877
16151 7 tri 7877 7878 7849
16152 7 tri 7913 7895 7878
16153 7 tri 7913 7916 7951
16154 7 tri 7877 7921 7916
16155 7 tri 8011 7973 8008
16156 7 tri 7928 7895 7913
16157 7 tri 8008 7992 8043
16158 7 tri 7951 7969 7992
16159 7 tri 7973 7928 7960
16160 7 tri 7939 7903 7928
16161 7 tri 8008 7973 7960
16162 7 tri 8011 7978 7973
16163 7 tri 7820 7860 7837
16164 7 tri 7847 7878 7860
16165 7 tri 7837 7871 7848
16166 7 tri 7895 7903 7871
16167 7 tri 7820 1094 7804
16168 7 tri 7771 7741 7755
16169 7 tri 7847 7820 7804
16170 7 tri 7847 7860 7820
16171 7 tri 1098 7783 1097
16172 7 tri 7783 7769 7812
16173 7 tri 7769 7791 7812
16174 7 tri 7849 7847 7817
16175 7 tri 7783 1098 7769
16176 7 tri 7717 7702 7679
16177 7 tri 1098 1097 7737
16178 7 tri 7783 7804 1097
16179 7 tri 7737 7755 7729
16180 7 tri 1097 1094 7755
16181 7 tri 1093 7771 1094
16182 7 tri 1093 7782 7771
16183 7 tri 7741 7707 7729
16184 7 tri 7626 7638 7662
16185 7 tri 7660 7707 7676
16186 7 tri 7693 7729 7707
16187 7 tri 7662 7660 7626
16188 7 tri 7693 7707 7660
16189 7 tri 7679 7662 7638
16190 7 tri 7679 7702 7662
16191 7 tri 7686 1103 7700
16192 7 tri 7717 7737 7702
16193 7 tri 7729 7702 7737
16194 7 tri 7693 7662 7702
16195 7 tri 1100 7717 7700
16196 7 tri 1098 7737 7717
16197 7 tri 7686 1105 1103
16198 7 tri 7769 1098 1100
16199 7 tri 7651 7666 7686
16200 7 tri 7824 7774 7809
16201 7 tri 1100 1103 7751
16202 7 tri 1100 7700 1103
16203 7 tri 7670 7651 7686
16204 7 tri 7618 7628 7651
16205 7 tri 7679 7670 7700
16206 7 tri 7640 7651 7670
16207 7 tri 1110 7648 7635
16208 7 tri 7648 1106 7666
16209 7 tri 1110 1106 7648
16210 7 tri 1105 7686 7666
16211 7 tri 7666 1106 1105
16212 7 tri 7695 7705 7732
16213 7 tri 1106 7716 1105
16214 7 tri 1106 1110 7695
16215 7 tri 1103 1105 7735
16216 7 tri 7716 1106 7695
16217 7 tri 7751 7735 7770
16218 7 tri 7748 7774 7789
16219 7 tri 7770 7735 7748
16220 7 tri 7770 7791 7751
16221 7 tri 1100 7751 7769
16222 7 tri 1103 7735 7751
16223 7 tri 7751 7791 7769
16224 7 tri 7770 7789 7815
16225 7 tri 7783 7812 7817
16226 7 tri 7791 7842 7812
16227 7 tri 7815 7789 7824
16228 7 tri 7770 7748 7789
16229 7 tri 7842 7815 7851
16230 7 tri 7791 7770 7815
16231 7 tri 7796 7845 7839
16232 7 tri 7889 7888 7839
16233 7 tri 7889 7845 7893
16234 7 tri 7790 7794 7841
16235 7 tri 7893 7845 7841
16236 7 tri 7889 7839 7845
16237 7 tri 7790 7747 7742
16238 7 tri 7790 7796 7747
16239 7 tri 7752 7796 7787
16240 7 tri 7790 7845 7796
16241 7 tri 7824 7809 7850
16242 7 tri 7774 7749 7809
16243 7 tri 7815 7824 7851
16244 7 tri 7789 7774 7824
16245 7 tri 7674 7705 7695
16246 7 tri 7674 7687 7705
16247 7 tri 7716 7732 7748
16248 7 tri 7705 7749 7732
16249 7 tri 1113 7674 1111
16250 7 tri 7722 7713 7752
16251 7 tri 7716 7695 7732
16252 7 tri 1110 7674 7695
16253 7 tri 7687 7677 7713
16254 7 tri 7641 7657 7677
16255 7 tri 7654 7687 7674
16256 7 tri 7654 7677 7687
16257 7 tri 7630 7658 7657
16258 7 tri 7742 7747 7703
16259 7 tri 7749 7722 7752
16260 7 tri 7705 7687 7722
16261 7 tri 7703 7698 7742
16262 7 tri 7703 7657 7698
16263 7 tri 7756 7711 7738
16264 7 tri 7698 7671 7711
16265 7 tri 7657 7658 7698
16266 7 tri 7630 7633 7658
16267 7 tri 7711 7690 7738
16268 7 tri 7646 7637 7673
16269 7 tri 7600 7639 7637
16270 7 tri 7639 7656 7683
16271 7 tri 7646 7673 7690
16272 7 tri 7758 7704 7727
16273 7 tri 7639 7683 7673
16274 7 tri 7639 7616 7656
16275 7 tri 7690 7718 7738
16276 7 tri 7683 7704 7733
16277 7 tri 7758 7733 7704
16278 7 tri 7718 7683 7733
16279 7 tri 7788 7775 7827
16280 7 tri 7718 7733 7775
16281 7 tri 7775 7788 7738
16282 7 tri 7794 7742 7756
16283 7 tri 7834 7788 7827
16284 7 tri 7756 7738 7788
16285 7 tri 7879 7884 7834
16286 7 tri 7884 7893 7841
16287 7 tri 7827 7879 7834
16288 7 tri 7943 7893 7884
16289 7 tri 7775 7833 7827
16290 7 tri 7863 7915 7892
16291 7 tri 7833 7892 7827
16292 7 tri 7927 7943 7884
16293 7 tri 7827 7892 7879
16294 7 tri 7833 7863 7892
16295 7 tri 7915 7953 7892
16296 7 tri 7996 8044 7988
16297 7 tri 7996 7953 8014
16298 7 tri 7941 7892 7953
16299 7 tri 8050 8044 8090
16300 7 tri 7988 7943 7927
16301 7 tri 7988 8050 7999
16302 7 tri 8158 8193 8200
16303 7 tri 8050 8056 7999
16304 7 tri 8136 8090 8106
16305 7 tri 7879 7927 7884
16306 7 tri 7941 7996 7988
16307 7 tri 7941 7988 7927
16308 7 tri 8044 8050 7988
16309 7 tri 7999 8003 7950
16310 7 tri 7971 7955 7917
16311 7 tri 8003 7980 7942
16312 7 tri 7942 7889 7950
16313 7 tri 7923 7888 7942
16314 7 tri 7850 7839 7888
16315 7 tri 7980 7971 7923
16316 7 tri 7917 7875 7923
16317 7 tri 7942 7980 7923
16318 7 tri 8023 8005 7971
16319 7 tri 7950 8003 7942
16320 7 tri 8031 8023 7980
16321 7 tri 8056 8003 7999
16322 7 tri 8056 8075 8003
16323 7 tri 8003 8031 7980
16324 7 tri 8075 8077 8031
16325 7 tri 8050 8099 8056
16326 7 tri 8158 8200 8167
16327 7 tri 8110 8120 8075
16328 7 tri 8110 8158 8120
16329 7 tri 8023 8077 8062
16330 7 tri 8075 8120 8124
16331 7 tri 8062 8107 8116
16332 7 tri 8077 8075 8124
16333 7 tri 8077 8124 8107
16334 7 tri 8120 8167 8124
16335 7 tri 8154 8169 8205
16336 7 tri 8124 8167 8169
16337 7 tri 8056 8099 8110
16338 7 tri 8180 8223 8216
16339 7 tri 8149 8158 8110
16340 7 tri 8149 8193 8158
16341 7 tri 8099 8137 8149
16342 7 tri 8182 8199 8233
16343 7 tri 8137 8182 8180
16344 7 tri 8136 8106 8159
16345 7 tri 8110 8099 8149
16346 7 tri 8050 8090 8099
16347 7 tri 8149 8137 8180
16348 7 tri 8099 8090 8137
16349 7 tri 8104 8106 8064
16350 7 tri 8090 8044 8058
16351 7 tri 8147 8106 8104
16352 7 tri 8159 8182 8136
16353 7 tri 8137 8136 8182
16354 7 tri 8137 8090 8136
16355 7 tri 8199 8159 8196
16356 7 tri 8199 8182 8159
16357 7 tri 8260 8226 8276
16358 7 tri 8147 8159 8106
16359 7 tri 8065 8098 8097
16360 7 tri 8064 8014 8017
16361 7 tri 8026 8059 8017
16362 7 tri 8097 8104 8059
16363 7 tri 7972 7985 8017
16364 7 tri 7995 8036 8026
16365 7 tri 8036 8065 8026
16366 7 tri 8036 8078 8065
16367 7 tri 8065 8078 8098
16368 7 tri 8114 8111 8135
16369 7 tri 8065 8097 8059
16370 7 tri 8215 8181 8226
16371 7 tri 8068 8084 8100
16372 7 tri 8030 8018 8054
16373 7 tri 8114 8100 8084
16374 7 tri 8118 8078 8100
16375 7 tri 8054 8086 8084
16376 7 tri 8063 8069 8086
16377 7 tri 8132 8114 8144
16378 7 tri 8084 8086 8114
16379 7 tri 8001 7995 7967
16380 7 tri 7998 7970 7977
16381 7 tri 8068 8030 8054
16382 7 tri 8018 8033 8054
16383 7 tri 8084 8068 8054
16384 7 tri 7964 8001 7967
16385 7 tri 8037 8068 8078
16386 7 tri 8037 8030 8068
16387 7 tri 7956 7930 7967
16388 7 tri 7883 7887 7858
16389 7 tri 8037 8001 8030
16390 7 tri 7964 7954 7987
16391 7 tri 7926 7894 7925
16392 7 tri 7954 7937 7970
16393 7 tri 7964 7987 7997
16394 7 tri 7925 7899 7912
16395 7 tri 7894 7859 7899
16396 7 tri 7867 7887 7899
16397 7 tri 7914 7937 7912
16398 7 tri 7925 7894 7899
16399 7 tri 7855 7828 7811
16400 7 tri 7964 7925 7954
16401 7 tri 7964 7926 7925
16402 7 tri 7967 7930 7926
16403 7 tri 7891 7894 7926
16404 7 tri 7926 7930 7891
16405 7 tri 7926 7964 7967
16406 7 tri 7997 8001 7964
16407 7 tri 7995 7956 7967
16408 7 tri 8030 8001 7997
16409 7 tri 8037 8036 8001
16410 7 tri 8014 7972 8017
16411 7 tri 7953 7915 7972
16412 7 tri 8017 7985 8026
16413 7 tri 7972 7934 7985
16414 7 tri 7915 7885 7934
16415 7 tri 7866 7828 7855
16416 7 tri 7956 7934 7910
16417 7 tri 7972 7915 7934
16418 7 tri 7786 7816 7833
16419 7 tri 7885 7910 7934
16420 7 tri 7838 7885 7863
16421 7 tri 7838 7866 7885
16422 7 tri 7780 7799 7838
16423 7 tri 7773 7781 7811
16424 7 tri 7885 7866 7910
16425 7 tri 7838 7828 7866
16426 7 tri 7727 7780 7758
16427 7 tri 7799 7828 7838
16428 7 tri 7727 7746 7780
16429 7 tri 7773 7811 7799
16430 7 tri 7838 7816 7780
16431 7 tri 7833 7775 7786
16432 7 tri 7833 7816 7863
16433 7 tri 7786 7758 7816
16434 7 tri 7656 7678 7704
16435 7 tri 7746 7724 7773
16436 7 tri 7816 7758 7780
16437 7 tri 7786 7733 7758
16438 7 tri 7683 7656 7704
16439 7 tri 7616 7623 7656
16440 7 tri 7603 7649 7623
16441 7 tri 7649 7696 7678
16442 7 tri 7675 7649 7624
16443 7 tri 7675 7696 7649
16444 7 tri 7678 7696 7727
16445 7 tri 7675 7694 7724
16446 7 tri 7780 7746 7799
16447 7 tri 7696 7675 7724
16448 7 tri 7746 7773 7799
16449 7 tri 7781 7759 7797
16450 7 tri 7720 7694 7688
16451 7 tri 7724 7746 7696
16452 7 tri 7720 7724 7694
16453 7 tri 7743 7773 7724
16454 7 tri 7624 7644 7675
16455 7 tri 7624 7601 7644
16456 7 tri 7669 7688 7650
16457 7 tri 7694 7675 7667
16458 7 tri 7685 7699 7669
16459 7 tri 7688 7667 7650
16460 7 tri 7699 7688 7669
16461 7 tri 7728 7720 7688
16462 7 tri 7759 7720 7728
16463 7 tri 7743 7724 7720
16464 7 tri 7797 7759 7767
16465 7 tri 7743 7720 7759
16466 7 tri 7822 7797 7793
16467 7 tri 7759 7728 7767
16468 7 tri 7784 7793 7767
16469 7 tri 7811 7828 7799
16470 7 tri 7743 7781 7773
16471 7 tri 7743 7759 7781
16472 7 tri 7797 7821 7781
16473 7 tri 7855 7894 7891
16474 7 tri 7894 7855 7859
16475 7 tri 7811 7781 7821
16476 7 tri 7859 7855 7821
16477 7 tri 7891 7866 7855
16478 7 tri 7858 7829 7822
16479 7 tri 7867 7859 7829
16480 7 tri 7829 7859 7821
16481 7 tri 7867 7899 7859
16482 7 tri 7887 7912 7899
16483 7 tri 7822 7852 7858
16484 7 tri 7793 7797 7767
16485 7 tri 7818 7793 7784
16486 7 tri 7822 7829 7797
16487 7 tri 7818 7822 7793
16488 7 tri 7818 7852 7822
16489 7 tri 7719 7736 7699
16490 7 tri 7767 7728 7736
16491 7 tri 7784 7767 7750
16492 7 tri 7653 7685 7669
16493 7 tri 7736 7728 7699
16494 7 tri 7685 7719 7699
16495 7 tri 7852 7883 7858
16496 7 tri 7858 7887 7867
16497 7 tri 7883 7914 7887
16498 7 tri 7949 7937 7914
16499 7 tri 7954 7925 7937
16500 7 tri 7970 7998 7987
16501 7 tri 7970 7937 7949
16502 7 tri 7977 7970 7949
16503 7 tri 7998 8018 7987
16504 7 tri 7998 8010 8033
16505 7 tri 8010 7998 7977
16506 7 tri 8033 8018 7998
16507 7 tri 8054 8063 8086
16508 7 tri 8086 8069 8095
16509 7 tri 8063 8033 8038
16510 7 tri 8063 8038 8069
16511 7 tri 8033 8010 8038
16512 7 tri 8263 8248 8281
16513 7 tri 8352 8319 8363
16514 7 tri 8408 8352 8407
16515 7 tri 8302 8316 8272
16516 7 tri 8352 8363 8407
16517 7 tri 8268 8235 8263
16518 7 tri 8174 8144 8165
16519 7 tri 8225 8194 8218
16520 7 tri 8218 8194 8184
16521 7 tri 8201 8235 8212
16522 7 tri 8135 8111 8125
16523 7 tri 8184 8165 8153
16524 7 tri 8165 8135 8153
16525 7 tri 8225 8201 8194
16526 7 tri 8181 8202 8226
16527 7 tri 8194 8201 8174
16528 7 tri 8151 8118 8132
16529 7 tri 8174 8201 8173
16530 7 tri 8235 8254 8212
16531 7 tri 8201 8212 8173
16532 7 tri 8229 8252 8202
16533 7 tri 8225 8235 8201
16534 7 tri 8225 8263 8235
16535 7 tri 8212 8190 8173
16536 7 tri 8212 8254 8229
16537 7 tri 8212 8229 8190
16538 7 tri 8254 8302 8272
16539 7 tri 8173 8132 8144
16540 7 tri 8118 8100 8132
16541 7 tri 8173 8151 8132
16542 7 tri 8190 8202 8161
16543 7 tri 8098 8134 8097
16544 7 tri 8098 8118 8134
16545 7 tri 8118 8161 8134
16546 7 tri 8151 8190 8161
16547 7 tri 8159 8147 8196
16548 7 tri 8104 8097 8139
16549 7 tri 8139 8147 8104
16550 7 tri 8139 8176 8147
16551 7 tri 8147 8176 8196
16552 7 tri 8139 8134 8181
16553 7 tri 8282 8240 8260
16554 7 tri 8277 8236 8240
16555 7 tri 8139 8181 8176
16556 7 tri 8161 8202 8181
16557 7 tri 8196 8215 8240
16558 7 tri 8176 8181 8215
16559 7 tri 8329 8310 8276
16560 7 tri 8260 8215 8226
16561 7 tri 8360 8329 8308
16562 7 tri 8276 8252 8308
16563 7 tri 8310 8260 8276
16564 7 tri 8310 8282 8260
16565 7 tri 8343 8313 8282
16566 7 tri 8277 8240 8282
16567 7 tri 8320 8313 8361
16568 7 tri 8277 8282 8313
16569 7 tri 8313 8343 8361
16570 7 tri 8310 8329 8357
16571 7 tri 8316 8360 8308
16572 7 tri 8357 8343 8310
16573 7 tri 8402 8398 8329
16574 7 tri 8389 8360 8316
16575 7 tri 8402 8329 8360
16576 7 tri 8356 8389 8316
16577 7 tri 8308 8272 8316
16578 7 tri 8308 8252 8272
16579 7 tri 8359 8356 8302
16580 7 tri 8359 8411 8356
16581 7 tri 8352 8312 8307
16582 7 tri 8254 8235 8268
16583 7 tri 8268 8302 8254
16584 7 tri 8359 8352 8408
16585 7 tri 8268 8312 8302
16586 7 tri 8268 8307 8312
16587 7 tri 8352 8359 8312
16588 7 tri 8408 8411 8359
16589 7 tri 6781 8411 8408
16590 7 tri 6782 8389 8411
16591 7 tri 6781 6782 8411
16592 7 tri 8402 6784 6785
16593 7 tri 8398 8402 6785
16594 7 tri 8360 8389 8402
16595 7 tri 8389 6783 6784
16596 7 tri 8389 6782 6783
16597 7 tri 8357 8329 8398
16598 7 tri 8398 6786 8405
16599 7 tri 8398 6785 6786
16600 7 tri 8357 8405 8343
16601 7 tri 6787 8405 6786
16602 7 tri 8403 8343 8405
16603 7 tri 8403 6787 6788
16604 7 tri 8403 8405 6787
16605 7 tri 8407 6779 6780
16606 8 tri 8538 8524 8563
16607 8 tri 8635 8662 8619
16608 8 tri 8940 8924 8943
16609 8 tri 8550 8533 8511
16610 8 tri 8799 8771 8803
16611 8 tri 8740 8716 8754
16612 8 tri 8497 8542 8540
16613 8 tri 8678 8635 8647
16614 8 tri 8466 8415 8507
16615 8 tri 8527 8478 8479
16616 8 tri 8554 8525 8502
16617 8 tri 8849 8855 8823
16618 8 tri 8620 8610 8574
16619 8 tri 8699 8702 8661
16620 8 tri 8693 8656 8674
16621 8 tri 8614 8579 8617
16622 8 tri 8727 8700 8735
16623 8 tri 9055 9029 9040
16624 8 tri 9159 9187 9173
16625 8 tri 8721 8718 8692
16626 8 tri 9144 9159 9133
16627 8 tri 8281 8248 9466
16628 8 tri 9341 8125 8095
16629 8 tri 6734 6779 9604
16630 8 tri 9572 6530 9593
16631 8 tri 9385 9366 9394
16632 8 tri 8998 8993 9012
16633 8 tri 8890 8917 8877
16634 8 tri 9469 9513 9496
16635 8 tri 8929 8923 8910
16636 8 tri 8985 8992 8953
16637 8 tri 9261 9239 9279
16638 8 tri 8649 8608 8655
16639 8 tri 5816 9560 9587
16640 8 tri 9434 9399 9397
16641 8 tri 8733 8760 8723
16642 8 tri 8735 8707 8743
16643 8 tri 8569 8601 8613
16644 8 tri 8517 8524 8477
16645 8 tri 9039 9033 9026
16646 8 tri 9005 9004 9021
16647 8 tri 8668 8683 8637
16648 8 tri 9576 9528 9571
16649 8 tri 8904 8891 8874
16650 8 tri 8645 8618 8650
16651 8 tri 8828 8799 8830
16652 8 tri 8490 8518 8479
16653 8 tri 8890 8901 8928
16654 8 tri 8833 8804 8850
16655 8 tri 8964 8989 8952
16656 8 tri 8825 8816 8784
16657 8 tri 8680 8706 8663
16658 8 tri 8850 8816 8860
16659 8 tri 8735 8768 8727
16660 8 tri 8695 8673 8653
16661 8 tri 8639 8616 8663
16662 8 tri 8625 8626 8584
16663 8 tri 8623 8644 8668
16664 8 tri 8706 8715 8742
16665 8 tri 8496 8431 8489
16666 8 tri 8568 8527 8565
16667 8 tri 8537 8520 8481
16668 8 tri 8526 8541 8484
16669 8 tri 8469 8498 8429
16670 8 tri 8483 8421 8420
16671 8 tri 8502 8425 8481
16672 8 tri 8434 8433 8479
16673 8 tri 8431 8430 8489
16674 8 tri 8570 8614 8599
16675 8 tri 8608 8562 8587
16676 8 tri 8510 8464 8446
16677 8 tri 8573 8575 8532
16678 8 tri 8809 7275 7254
16679 8 tri 7295 8847 7316
16680 8 tri 8658 7107 7076
16681 8 tri 8592 7045 7010
16682 8 tri 8870 7316 8847
16683 8 tri 8751 8732 8726
16684 8 tri 9000 9011 9029
16685 8 tri 7413 7387 8908
16686 8 tri 8909 8896 8915
16687 8 tri 8911 8912 8878
16688 8 tri 8958 8951 8938
16689 8 tri 8909 8895 8896
16690 8 tri 8726 8719 8745
16691 8 tri 8459 8467 8460
16692 8 tri 8910 8900 8895
16693 8 tri 8718 8737 8704
16694 8 tri 8509 6926 8460
16695 8 tri 8630 8599 8638
16696 8 tri 8795 8781 8814
16697 8 tri 8581 8535 8552
16698 8 tri 8806 8823 8780
16699 8 tri 8792 8752 8774
16700 8 tri 8893 8885 8849
16701 8 tri 9142 9125 9103
16702 8 tri 8995 8974 9017
16703 8 tri 9137 9101 9096
16704 8 tri 9427 9394 9405
16705 8 tri 9359 9398 9378
16706 8 tri 9345 9340 9375
16707 8 tri 9422 9394 9427
16708 8 tri 9042 9068 9083
16709 8 tri 9547 9499 9540
16710 8 tri 9060 9063 9045
16711 8 tri 9165 9180 9134
16712 8 tri 8958 8968 8971
16713 8 tri 9052 9069 9074
16714 8 tri 9038 9060 9045
16715 8 tri 9132 9128 9150
16716 8 tri 9262 9245 9271
16717 8 tri 9211 9229 9194
16718 8 tri 9466 9436 9456
16719 8 tri 9379 9382 9352
16720 8 tri 9439 9404 9452
16721 8 tri 9495 9535 9538
16722 8 tri 6691 9602 9561
16723 8 tri 9547 9595 9583
16724 8 tri 9491 9510 9534
16725 8 tri 9574 9526 9582
16726 8 tri 6372 9580 6352
16727 8 tri 9577 9579 9539
16728 8 tri 9398 9384 9423
16729 8 tri 9575 9571 9527
16730 8 tri 9577 6019 6047
16731 8 tri 9591 9565 6305
16732 8 tri 9473 9494 9454
16733 8 tri 9450 9429 9407
16734 8 tri 5964 5989 9576
16735 8 tri 9480 9458 9428
16736 8 tri 9527 9494 9473
16737 8 tri 9307 9326 9347
16738 8 tri 9157 9161 9141
16739 8 tri 9362 9354 9393
16740 8 tri 9410 9389 9429
16741 8 tri 9450 9400 9435
16742 8 tri 9066 9103 9087
16743 8 tri 9153 9109 9143
16744 8 tri 9100 9102 9126
16745 8 tri 9316 9312 9292
16746 8 tri 9142 9116 9147
16747 8 tri 9410 9429 9454
16748 8 tri 9471 9472 9518
16749 8 tri 9182 9218 9196
16750 8 tri 9039 9058 9050
16751 8 tri 9121 9126 9151
16752 8 tri 9158 9182 9196
16753 8 tri 9148 9124 9140
16754 8 tri 9252 3460 3489
16755 8 tri 9462 9440 9430
16756 8 tri 9356 9360 9336
16757 8 tri 9501 9551 9550
16758 8 tri 2645 2675 8650
16759 8 tri 8415 8414 8461
16760 8 tri 2493 8513 8465
16761 8 tri 8463 8412 8465
16762 8 tri 8650 2675 8672
16763 8 tri 8675 8650 8672
16764 8 tri 2536 8513 2493
16765 8 tri 8750 8762 8775
16766 8 tri 8882 8866 2911
16767 8 tri 8903 8882 2932
16768 8 tri 8980 9004 8983
16769 8 tri 8926 8907 8921
16770 8 tri 8962 8940 8943
16771 8 tri 8991 3052 3077
16772 8 tri 8861 8838 8840
16773 8 tri 8810 8817 8843
16774 8 tri 8894 8882 8903
16775 8 tri 8926 8944 8943
16776 8 tri 2778 2800 8762
16777 8 tri 8831 2868 8845
16778 8 tri 8787 2822 8808
16779 8 tri 8822 8838 8844
16780 8 tri 8801 8775 8787
16781 8 tri 2730 8720 2706
16782 8 tri 8720 8705 8697
16783 8 tri 2778 8762 8744
16784 8 tri 8689 8675 8705
16785 8 tri 8684 8652 8682
16786 8 tri 8755 8738 8761
16787 8 tri 8569 8556 8601
16788 8 tri 8618 8595 8628
16789 8 tri 8724 8756 8714
16790 8 tri 8600 8623 8577
16791 8 tri 8613 8647 8604
16792 8 tri 8684 8682 8708
16793 8 tri 8662 8635 8678
16794 8 tri 8678 8716 8703
16795 8 tri 8684 8678 8647
16796 8 tri 8703 8696 8662
16797 8 tri 8734 8730 8755
16798 8 tri 8925 8891 8904
16799 8 tri 8716 8708 8734
16800 8 tri 8787 8762 2800
16801 8 tri 8766 8798 8785
16802 8 tri 8817 8798 8822
16803 8 tri 8874 8865 8892
16804 8 tri 8920 8902 8924
16805 8 tri 8999 8987 8966
16806 8 tri 8977 8947 8959
16807 8 tri 9010 8977 8987
16808 8 tri 8925 8918 8891
16809 8 tri 8864 8830 8839
16810 8 tri 8844 8838 8854
16811 8 tri 8996 8964 8977
16812 8 tri 8869 8898 8913
16813 8 tri 8756 8786 8784
16814 8 tri 8862 8864 8891
16815 8 tri 8887 8927 8898
16816 8 tri 8796 8804 8833
16817 8 tri 9066 9081 9103
16818 8 tri 9154 9180 9197
16819 8 tri 8833 8877 8835
16820 8 tri 8917 8914 8877
16821 8 tri 9057 9096 9101
16822 8 tri 8973 9008 9023
16823 8 tri 8715 8714 8748
16824 8 tri 8850 8860 8890
16825 8 tri 8875 8835 8877
16826 8 tri 8776 8784 8816
16827 8 tri 8759 8727 8768
16828 8 tri 8742 8776 8765
16829 8 tri 8646 8686 8669
16830 8 tri 8784 8776 8748
16831 8 tri 8712 8731 8758
16832 8 tri 8776 8804 8765
16833 8 tri 8668 8714 8683
16834 8 tri 8748 8776 8742
16835 8 tri 8756 8748 8714
16836 8 tri 8756 8784 8748
16837 8 tri 8683 8680 8651
16838 8 tri 8707 8712 8743
16839 8 tri 8731 8742 8765
16840 8 tri 8706 8680 8715
16841 8 tri 8611 8667 8641
16842 8 tri 8731 8691 8706
16843 8 tri 8479 8518 8527
16844 8 tri 8527 8514 8478
16845 8 tri 8482 8480 8439
16846 8 tri 8429 8498 8430
16847 8 tri 8528 8567 8546
16848 8 tri 8546 8594 8565
16849 8 tri 8503 8525 8549
16850 8 tri 8634 8680 8663
16851 8 tri 8474 8426 8502
16852 8 tri 8600 8571 8622
16853 8 tri 8582 8541 8574
16854 8 tri 8493 8497 8419
16855 8 tri 8647 8613 8652
16856 8 tri 8507 8461 8533
16857 8 tri 8540 8578 8574
16858 8 tri 8484 8483 8526
16859 8 tri 8484 8421 8483
16860 8 tri 8422 8494 8423
16861 8 tri 8502 8520 8554
16862 8 tri 8541 8526 8574
16863 8 tri 8503 8427 8474
16864 8 tri 8424 8423 8494
16865 8 tri 8512 8514 8561
16866 8 tri 8512 8475 8468
16867 8 tri 8522 8512 8558
16868 8 tri 8598 8642 8627
16869 8 tri 8562 8522 8587
16870 8 tri 8603 8641 8642
16871 8 tri 8471 8443 8491
16872 8 tri 8492 8491 8442
16873 8 tri 8536 8575 8579
16874 8 tri 8442 8441 8492
16875 8 tri 8504 8471 8519
16876 8 tri 8504 8552 8535
16877 8 tri 8519 8491 8539
16878 8 tri 8552 8599 8581
16879 8 tri 8519 8570 8552
16880 8 tri 8677 8631 8643
16881 8 tri 8677 8681 8722
16882 8 tri 8462 8510 8446
16883 8 tri 8545 8590 8547
16884 8 tri 8581 8560 8535
16885 8 tri 8529 8495 8464
16886 8 tri 8444 8504 8445
16887 8 tri 8535 8510 8462
16888 8 tri 8504 8444 8471
16889 8 tri 8448 8447 8495
16890 8 tri 8605 8632 8580
16891 8 tri 8626 8590 8584
16892 8 tri 8509 6971 6926
16893 8 tri 8629 8640 8658
16894 8 tri 8701 8719 8726
16895 8 tri 8548 8531 8580
16896 8 tri 8666 8704 8688
16897 8 tri 8499 8458 8457
16898 8 tri 8500 8457 8456
16899 8 tri 8501 8449 8448
16900 8 tri 8547 8521 8486
16901 8 tri 8508 8451 8470
16902 8 tri 8661 8621 8624
16903 8 tri 8521 8470 8486
16904 8 tri 8701 8671 8688
16905 8 tri 8677 8692 8648
16906 8 tri 8751 8726 8745
16907 8 tri 8685 7107 8658
16908 8 tri 8872 8876 8895
16909 8 tri 8772 8777 8788
16910 8 tri 8749 8732 8751
16911 8 tri 8709 7159 7137
16912 8 tri 8606 8609 8640
16913 8 tri 8640 8654 8671
16914 8 tri 8658 7076 8629
16915 8 tri 7159 8709 8732
16916 8 tri 7338 7316 8870
16917 8 tri 9006 7528 8990
16918 8 tri 8788 8777 8800
16919 8 tri 8852 8859 8836
16920 8 tri 8939 8941 8965
16921 8 tri 9037 9012 9019
16922 8 tri 8941 8942 8967
16923 8 tri 9031 9022 9047
16924 8 tri 9011 9025 9040
16925 8 tri 9072 9055 9086
16926 8 tri 8986 9011 8975
16927 8 tri 8939 8965 8956
16928 8 tri 8916 8889 8912
16929 8 tri 8823 8805 8780
16930 8 tri 8876 8896 8895
16931 8 tri 8872 8859 8852
16932 8 tri 8719 8704 8737
16933 8 tri 8868 8878 8889
16934 8 tri 8609 8633 8654
16935 8 tri 8580 8632 8593
16936 8 tri 8688 8704 8719
16937 8 tri 8676 8692 8718
16938 8 tri 8676 8632 8648
16939 8 tri 8597 8543 8585
16940 8 tri 8746 8718 8721
16941 8 tri 8704 8676 8718
16942 8 tri 8818 8795 8814
16943 8 tri 8767 8805 8789
16944 8 tri 8841 8818 8842
16945 8 tri 8824 8805 8846
16946 8 tri 8757 8722 8767
16947 8 tri 8624 8590 8626
16948 8 tri 8602 8625 8584
16949 8 tri 8711 8673 8695
16950 8 tri 8560 8581 8602
16951 8 tri 8638 8673 8674
16952 8 tri 8728 8739 8698
16953 8 tri 8630 8638 8674
16954 8 tri 8670 8642 8679
16955 8 tri 8743 8758 8794
16956 8 tri 8670 8679 8707
16957 8 tri 8691 8667 8639
16958 8 tri 8797 8812 8774
16959 8 tri 8711 8717 8674
16960 8 tri 8881 8906 8863
16961 8 tri 8797 8774 8759
16962 8 tri 8960 8922 8930
16963 8 tri 8942 8912 8911
16964 8 tri 8953 8950 8985
16965 8 tri 8893 8934 8930
16966 8 tri 8995 9036 9008
16967 8 tri 9146 9113 9145
16968 8 tri 9023 9042 9002
16969 8 tri 9019 9012 8993
16970 8 tri 8863 8837 8881
16971 8 tri 8955 8995 8970
16972 8 tri 8906 8955 8932
16973 8 tri 8914 8905 8875
16974 8 tri 8992 8985 9027
16975 8 tri 9197 9223 9171
16976 8 tri 9059 9040 9025
16977 8 tri 9059 9092 9075
16978 8 tri 9144 9119 9115
16979 8 tri 9197 9171 9154
16980 8 tri 9059 9042 9083
16981 8 tri 9330 9291 9311
16982 8 tri 9284 9297 9323
16983 8 tri 9117 9155 9131
16984 8 tri 9240 9223 9197
16985 8 tri 9146 9117 9113
16986 8 tri 9345 9375 9387
16987 8 tri 9323 9339 9363
16988 8 tri 9442 9460 9417
16989 8 tri 9447 9490 9455
16990 8 tri 9396 9364 9372
16991 8 tri 9339 9359 9378
16992 8 tri 9452 9418 9453
16993 8 tri 9359 9321 9346
16994 8 tri 9532 9559 9514
16995 8 tri 9424 9448 9464
16996 8 tri 9174 9187 9159
16997 8 tri 9342 9330 9370
16998 8 tri 9363 9339 9378
16999 8 tri 9309 9318 9287
17000 8 tri 9318 9309 9342
17001 8 tri 9495 9486 9535
17002 8 tri 9342 9370 9379
17003 8 tri 9418 9377 9390
17004 8 tri 9408 9394 9422
17005 8 tri 9320 8095 8069
17006 8 tri 9420 9412 9451
17007 8 tri 9427 9456 9422
17008 8 tri 9246 9274 9258
17009 8 tri 9287 9318 9299
17010 8 tri 9366 9349 9376
17011 8 tri 9132 9150 9149
17012 8 tri 9202 9204 9224
17013 8 tri 9159 9144 9174
17014 8 tri 9160 9131 9155
17015 8 tri 9202 9173 9187
17016 8 tri 8994 9000 9029
17017 8 tri 9115 9106 9136
17018 8 tri 9037 9019 9046
17019 8 tri 9115 9136 9144
17020 8 tri 9028 9020 9038
17021 8 tri 9047 9022 9037
17022 8 tri 9127 9133 9152
17023 8 tri 9045 9063 7620
17024 8 tri 9079 7685 7653
17025 8 tri 9095 7685 9079
17026 8 tri 9089 9084 9108
17027 8 tri 9166 9150 9170
17028 8 tri 9208 9189 9202
17029 8 tri 9132 9114 9128
17030 8 tri 9281 9271 9299
17031 8 tri 9385 8153 9361
17032 8 tri 7949 7914 9220
17033 8 tri 9236 9256 7977
17034 8 tri 8069 9295 9320
17035 8 tri 9189 9191 9170
17036 8 tri 9220 7914 9203
17037 8 tri 9262 9271 9281
17038 8 tri 8038 8010 9276
17039 8 tri 9286 9267 9281
17040 8 tri 9236 9228 9247
17041 8 tri 9304 9324 9327
17042 8 tri 9420 9379 9412
17043 8 tri 9465 9495 9516
17044 8 tri 9546 9512 9561
17045 8 tri 9468 9441 9498
17046 8 tri 9593 9567 9538
17047 8 tri 9465 9441 9420
17048 8 tri 9505 9489 9546
17049 8 tri 9592 9553 9598
17050 8 tri 8281 9466 9505
17051 8 tri 9552 9602 9604
17052 8 tri 9456 9489 9466
17053 8 tri 9489 9468 9512
17054 8 tri 8248 9436 9466
17055 8 tri 9546 9602 9552
17056 8 tri 6734 9604 9602
17057 8 tri 9525 9592 9561
17058 8 tri 9561 9592 6652
17059 8 tri 9561 9602 9546
17060 8 tri 9547 9540 9595
17061 8 tri 9405 9382 9420
17062 8 tri 9370 9368 9402
17063 8 tri 9572 9519 9583
17064 8 tri 9499 9493 9540
17065 8 tri 9455 9448 9419
17066 8 tri 9474 9439 9452
17067 8 tri 9404 9368 9377
17068 8 tri 9537 9530 9580
17069 8 tri 6460 9595 9578
17070 8 tri 9530 9581 9580
17071 8 tri 9597 9537 9580
17072 8 tri 6327 9591 6305
17073 8 tri 9605 9554 9597
17074 8 tri 9530 9536 9581
17075 8 tri 9490 9536 9530
17076 8 tri 9488 9447 9461
17077 8 tri 9565 6280 6305
17078 8 tri 6327 6352 9581
17079 8 tri 9542 9536 9488
17080 8 tri 9529 9506 9485
17081 8 tri 5989 9588 9576
17082 8 tri 6180 9574 9582
17083 8 tri 9584 9541 9573
17084 8 tri 9523 9497 9549
17085 8 tri 9563 5751 5782
17086 8 tri 9518 9566 9515
17087 8 tri 9596 9570 9545
17088 8 tri 9435 9469 9450
17089 8 tri 9522 9527 9473
17090 8 tri 9528 9533 9480
17091 8 tri 9484 9438 9463
17092 8 tri 9428 9454 9480
17093 8 tri 9556 9504 9533
17094 8 tri 9508 9463 9504
17095 8 tri 9586 9574 6205
17096 8 tri 9484 9529 9485
17097 8 tri 9599 9555 9589
17098 8 tri 9526 9492 9543
17099 8 tri 9374 9395 9355
17100 8 tri 6256 9601 9559
17101 8 tri 9543 9506 9555
17102 8 tri 9369 9328 9362
17103 8 tri 9454 9494 9480
17104 8 tri 9369 9362 9400
17105 8 tri 9450 9496 9473
17106 8 tri 9458 9421 9428
17107 8 tri 9389 9407 9429
17108 8 tri 9367 9326 9344
17109 8 tri 9389 9369 9407
17110 8 tri 9290 9298 9331
17111 8 tri 9463 9458 9504
17112 8 tri 9428 9421 9392
17113 8 tri 9364 9331 9332
17114 8 tri 9364 9332 9372
17115 8 tri 9250 9257 9221
17116 8 tri 9014 9015 9056
17117 8 tri 9328 9322 9362
17118 8 tri 9223 9240 9265
17119 8 tri 9290 9331 9315
17120 8 tri 9098 9096 9056
17121 8 tri 9120 9125 9158
17122 8 tri 9076 9067 9109
17123 8 tri 9014 8976 9015
17124 8 tri 9307 9298 9270
17125 8 tri 9205 9165 9190
17126 8 tri 9410 9367 9389
17127 8 tri 9302 9289 9260
17128 8 tri 9207 9177 9164
17129 8 tri 9137 9143 9101
17130 8 tri 9056 9071 9098
17131 8 tri 9044 9010 9016
17132 8 tri 9168 9182 9142
17133 8 tri 9164 9120 9158
17134 8 tri 9073 9100 9094
17135 8 tri 9103 9125 9087
17136 8 tri 9094 9116 9081
17137 8 tri 9201 9172 9192
17138 8 tri 9125 9142 9158
17139 8 tri 9172 9151 9148
17140 8 tri 9218 9253 9264
17141 8 tri 9288 9322 9328
17142 8 tri 9151 9126 9148
17143 8 tri 9391 9425 9433
17144 8 tri 9244 9275 9283
17145 8 tri 9294 9273 9306
17146 8 tri 9283 9317 9322
17147 8 tri 9294 9264 9253
17148 8 tri 9407 9369 9400
17149 8 tri 9322 9354 9362
17150 8 tri 9400 9450 9407
17151 8 tri 9435 9433 9478
17152 8 tri 9354 9317 9351
17153 8 tri 9600 9551 9594
17154 8 tri 9393 9433 9435
17155 8 tri 9409 9371 9399
17156 8 tri 9230 9254 9238
17157 8 tri 9175 9162 9156
17158 8 tri 9216 9210 9200
17159 8 tri 9188 9169 9162
17160 8 tri 3433 3460 9235
17161 8 tri 9206 9230 9212
17162 8 tri 9188 9175 9199
17163 8 tri 9156 9162 9140
17164 8 tri 9222 9206 9199
17165 8 tri 9230 9242 9254
17166 8 tri 9188 9192 9169
17167 8 tri 9209 9226 9241
17168 8 tri 9122 9141 9138
17169 8 tri 9162 9175 9188
17170 8 tri 9049 9078 9073
17171 8 tri 9078 9082 9102
17172 8 tri 9065 9073 9094
17173 8 tri 9102 9082 9104
17174 8 tri 8997 9007 9013
17175 8 tri 9064 9082 9054
17176 8 tri 9085 9090 9105
17177 8 tri 8997 8980 8979
17178 8 tri 9054 9082 9078
17179 8 tri 9064 9070 9085
17180 8 tri 9140 9138 9156
17181 8 tri 9141 9161 9138
17182 8 tri 9077 9070 9058
17183 8 tri 9064 9050 9070
17184 8 tri 9041 9054 9034
17185 8 tri 9105 9122 9123
17186 8 tri 9122 9112 9130
17187 8 tri 3325 3350 9176
17188 8 tri 9176 9185 9161
17189 8 tri 3379 9200 9176
17190 8 tri 9185 9175 9161
17191 8 tri 9255 9252 9272
17192 8 tri 9272 9293 9277
17193 8 tri 3403 9216 9200
17194 8 tri 9380 3668 9406
17195 8 tri 9440 9462 9470
17196 8 tri 9383 9380 9411
17197 8 tri 9282 9285 9266
17198 8 tri 9314 9334 9316
17199 8 tri 9348 9337 9319
17200 8 tri 9273 9241 9269
17201 8 tri 9365 9373 9397
17202 8 tri 9467 9431 9459
17203 8 tri 9348 9381 9373
17204 8 tri 9383 9356 9380
17205 8 tri 9481 9459 9446
17206 8 tri 9416 9386 9383
17207 8 tri 9386 9358 9360
17208 8 tri 9520 9557 9573
17209 8 tri 9502 9462 3776
17210 8 tri 9573 5421 5455
17211 8 tri 5620 5652 9590
17212 8 tri 3866 9603 9548
17213 8 tri 9521 9557 9507
17214 8 tri 9607 5378 5421
17215 8 tri 3866 9548 3817
17216 8 tri 2493 8465 2393
17217 8 tri 8466 8416 8415
17218 8 tri 8461 8414 8413
17219 8 tri 8533 8556 8507
17220 8 tri 8477 8417 8416
17221 8 tri 8569 8517 8556
17222 8 tri 8466 8507 8517
17223 8 tri 8511 8533 8461
17224 8 tri 8507 8415 8461
17225 8 tri 8463 8511 8461
17226 8 tri 8511 8513 8550
17227 8 tri 8513 8511 8463
17228 8 tri 8513 8559 8550
17229 8 tri 8463 8461 8413
17230 8 tri 8412 8463 8413
17231 8 tri 8465 8513 8463
17232 8 tri 2393 8465 8412
17233 8 tri 2574 2610 8595
17234 8 tri 2610 8628 8595
17235 8 tri 2610 2645 8628
17236 8 tri 2675 2706 8672
17237 8 tri 8645 8612 8618
17238 8 tri 8628 2645 8650
17239 8 tri 2574 8559 2536
17240 8 tri 8595 8618 8588
17241 8 tri 8650 8618 8628
17242 8 tri 8576 8533 8550
17243 8 tri 8595 8588 8559
17244 8 tri 8576 8601 8556
17245 8 tri 8507 8556 8517
17246 8 tri 8533 8576 8556
17247 8 tri 8588 8576 8550
17248 8 tri 8588 8612 8576
17249 8 tri 8601 8612 8636
17250 8 tri 8601 8576 8612
17251 8 tri 8652 8636 8682
17252 8 tri 8652 8601 8636
17253 8 tri 8559 8588 8550
17254 8 tri 8618 8612 8588
17255 8 tri 8675 8645 8650
17256 8 tri 8636 8612 8645
17257 8 tri 8725 8713 8705
17258 8 tri 8697 2706 8720
17259 8 tri 8636 8660 8682
17260 8 tri 8636 8645 8660
17261 8 tri 8660 8689 8682
17262 8 tri 8660 8645 8675
17263 8 tri 8684 8708 8716
17264 8 tri 8682 8689 8713
17265 8 tri 8754 8734 8766
17266 8 tri 8708 8682 8713
17267 8 tri 8708 8713 8730
17268 8 tri 8689 8705 8713
17269 8 tri 8787 8808 8801
17270 8 tri 8730 8713 8738
17271 8 tri 8750 8725 8744
17272 8 tri 8738 8713 8725
17273 8 tri 8697 8675 8672
17274 8 tri 8689 8660 8675
17275 8 tri 8675 8697 8705
17276 8 tri 8672 2706 8697
17277 8 tri 8705 8720 8725
17278 8 tri 2755 2778 8744
17279 8 tri 8720 8744 8725
17280 8 tri 8720 2730 8744
17281 8 tri 8744 2730 2755
17282 8 tri 8559 8513 2536
17283 8 tri 8595 8559 2574
17284 8 tri 2822 2845 8808
17285 8 tri 8845 2868 2889
17286 8 tri 8854 8838 8861
17287 8 tri 2932 8882 2911
17288 8 tri 9058 9039 3159
17289 8 tri 8991 8972 3052
17290 8 tri 8972 3025 3052
17291 8 tri 9007 8991 3077
17292 8 tri 3002 3025 8957
17293 8 tri 8921 8907 8903
17294 8 tri 8921 8903 2955
17295 8 tri 3002 8957 8937
17296 8 tri 2975 8921 2955
17297 8 tri 8907 8884 8894
17298 8 tri 8902 8907 8924
17299 8 tri 8866 8871 8851
17300 8 tri 8937 8921 2975
17301 8 tri 8926 8924 8907
17302 8 tri 8937 8926 8921
17303 8 tri 8940 8962 8963
17304 8 tri 3002 8937 2975
17305 8 tri 8957 8944 8937
17306 8 tri 8937 8944 8926
17307 8 tri 8961 8972 8979
17308 8 tri 8961 8957 8972
17309 8 tri 8957 3025 8972
17310 8 tri 3104 9007 3077
17311 8 tri 8979 8972 8991
17312 8 tri 3129 9026 3104
17313 8 tri 9034 9054 9049
17314 8 tri 9026 9013 9007
17315 8 tri 9024 9034 9049
17316 8 tri 3104 9026 9007
17317 8 tri 9039 9050 9033
17318 8 tri 9007 8997 8991
17319 8 tri 8961 8944 8957
17320 8 tri 8991 8997 8979
17321 8 tri 8980 8962 8961
17322 8 tri 9013 9004 8997
17323 8 tri 9005 9021 9034
17324 8 tri 8997 9004 8980
17325 8 tri 9013 9033 9021
17326 8 tri 9026 9033 9013
17327 8 tri 9050 9064 9041
17328 8 tri 9013 9021 9004
17329 8 tri 9033 9050 9041
17330 8 tri 8982 8963 8983
17331 8 tri 9021 9041 9034
17332 8 tri 8982 8983 9005
17333 8 tri 8962 8980 8983
17334 8 tri 8999 8982 9005
17335 8 tri 8983 9004 9005
17336 8 tri 8919 8920 8940
17337 8 tri 8962 8983 8963
17338 8 tri 8926 8943 8924
17339 8 tri 8944 8961 8943
17340 8 tri 8980 8961 8979
17341 8 tri 8962 8943 8961
17342 8 tri 8920 8899 8902
17343 8 tri 8879 8884 8902
17344 8 tri 8966 8936 8945
17345 8 tri 8919 8899 8920
17346 8 tri 8873 8899 8892
17347 8 tri 8879 8902 8899
17348 8 tri 8940 8920 8924
17349 8 tri 8918 8925 8947
17350 8 tri 8899 8873 8879
17351 8 tri 8843 8839 8810
17352 8 tri 8865 8844 8873
17353 8 tri 8779 8766 8755
17354 8 tri 8873 8854 8879
17355 8 tri 8873 8844 8854
17356 8 tri 8815 8821 8840
17357 8 tri 8831 2845 2868
17358 8 tri 8854 8861 8879
17359 8 tri 8851 8845 8866
17360 8 tri 8902 8884 8907
17361 8 tri 8879 8861 8884
17362 8 tri 8907 8894 8903
17363 8 tri 8871 8861 8851
17364 8 tri 8894 8884 8871
17365 8 tri 2955 8903 2932
17366 8 tri 2911 8866 2889
17367 8 tri 8840 8821 8831
17368 8 tri 2889 8866 8845
17369 8 tri 8882 8894 8871
17370 8 tri 8840 8851 8861
17371 8 tri 8840 8831 8851
17372 8 tri 8882 8871 8866
17373 8 tri 8884 8861 8871
17374 8 tri 8761 8750 8775
17375 8 tri 8815 8840 8838
17376 8 tri 8808 8821 8801
17377 8 tri 8808 2845 8831
17378 8 tri 8851 8831 8845
17379 8 tri 8821 8808 8831
17380 8 tri 8783 8775 8801
17381 8 tri 8750 8744 8762
17382 8 tri 8762 8787 8775
17383 8 tri 2800 2822 8787
17384 8 tri 8783 8761 8775
17385 8 tri 8738 8725 8750
17386 8 tri 8821 8815 8801
17387 8 tri 8761 8738 8750
17388 8 tri 8779 8798 8766
17389 8 tri 8755 8730 8738
17390 8 tri 8779 8783 8802
17391 8 tri 8783 8801 8802
17392 8 tri 8822 8815 8838
17393 8 tri 8802 8801 8815
17394 8 tri 8815 8822 8802
17395 8 tri 8785 8778 8754
17396 8 tri 8817 8822 8844
17397 8 tri 8798 8802 8822
17398 8 tri 8783 8779 8761
17399 8 tri 8766 8734 8755
17400 8 tri 8761 8779 8755
17401 8 tri 8802 8798 8779
17402 8 tri 8563 8569 8604
17403 8 tri 8601 8652 8613
17404 8 tri 8647 8635 8604
17405 8 tri 8678 8703 8662
17406 8 tri 8678 8684 8716
17407 8 tri 8647 8652 8684
17408 8 tri 8657 8620 8662
17409 8 tri 8619 8586 8635
17410 8 tri 8635 8586 8604
17411 8 tri 8497 8540 8483
17412 8 tri 8657 8610 8620
17413 8 tri 8620 8578 8619
17414 8 tri 8619 8578 8586
17415 8 tri 8574 8526 8540
17416 8 tri 8610 8582 8574
17417 8 tri 8607 8637 8651
17418 8 tri 8578 8620 8574
17419 8 tri 8646 8622 8610
17420 8 tri 8610 8622 8582
17421 8 tri 8646 8669 8622
17422 8 tri 8686 8723 8710
17423 8 tri 8710 8724 8690
17424 8 tri 8662 8620 8619
17425 8 tri 8662 8696 8657
17426 8 tri 8686 8657 8696
17427 8 tri 8646 8610 8657
17428 8 tri 8703 8733 8696
17429 8 tri 8753 8793 8786
17430 8 tri 8657 8686 8646
17431 8 tri 8696 8723 8686
17432 8 tri 8686 8710 8669
17433 8 tri 8723 8760 8753
17434 8 tri 8771 8760 8733
17435 8 tri 8723 8696 8733
17436 8 tri 8786 8793 8826
17437 8 tri 8786 8756 8753
17438 8 tri 8740 8733 8703
17439 8 tri 8803 8810 8839
17440 8 tri 8839 8830 8803
17441 8 tri 8793 8760 8799
17442 8 tri 8778 8740 8754
17443 8 tri 8778 8810 8803
17444 8 tri 8716 8740 8703
17445 8 tri 8778 8803 8771
17446 8 tri 8760 8771 8799
17447 8 tri 8733 8740 8771
17448 8 tri 8716 8734 8754
17449 8 tri 8708 8730 8734
17450 8 tri 8740 8778 8771
17451 8 tri 8754 8766 8785
17452 8 tri 8817 8785 8798
17453 8 tri 8810 8778 8785
17454 8 tri 8865 8843 8844
17455 8 tri 8810 8785 8817
17456 8 tri 8892 8865 8873
17457 8 tri 8892 8904 8874
17458 8 tri 8844 8843 8817
17459 8 tri 8865 8874 8843
17460 8 tri 8864 8874 8891
17461 8 tri 8839 8843 8874
17462 8 tri 8899 8919 8892
17463 8 tri 8925 8959 8947
17464 8 tri 8945 8936 8919
17465 8 tri 8904 8892 8919
17466 8 tri 8919 8936 8904
17467 8 tri 8919 8940 8945
17468 8 tri 8963 8945 8940
17469 8 tri 8963 8982 8966
17470 8 tri 9024 8999 9005
17471 8 tri 8966 8945 8963
17472 8 tri 9034 9024 9005
17473 8 tri 9016 9010 8987
17474 8 tri 9043 9016 9024
17475 8 tri 8987 8959 8966
17476 8 tri 9024 9016 8999
17477 8 tri 9044 9081 9066
17478 8 tri 8999 8966 8982
17479 8 tri 8959 8936 8966
17480 8 tri 9016 8987 8999
17481 8 tri 8977 8959 8987
17482 8 tri 8977 8964 8947
17483 8 tri 8927 8887 8918
17484 8 tri 8936 8925 8904
17485 8 tri 8936 8959 8925
17486 8 tri 9043 9044 9016
17487 8 tri 9032 8996 9010
17488 8 tri 9010 8996 8977
17489 8 tri 9018 8989 8996
17490 8 tri 9087 9051 9066
17491 8 tri 9018 8996 9032
17492 8 tri 8952 8927 8964
17493 8 tri 8918 8947 8927
17494 8 tri 8947 8964 8927
17495 8 tri 8996 8989 8964
17496 8 tri 8826 8858 8869
17497 8 tri 8828 8793 8799
17498 8 tri 8874 8864 8839
17499 8 tri 8913 8898 8927
17500 8 tri 8891 8887 8862
17501 8 tri 8891 8918 8887
17502 8 tri 8862 8830 8864
17503 8 tri 8799 8803 8830
17504 8 tri 8898 8858 8887
17505 8 tri 8887 8858 8862
17506 8 tri 8862 8828 8830
17507 8 tri 8826 8793 8828
17508 8 tri 8828 8858 8826
17509 8 tri 8828 8862 8858
17510 8 tri 8825 8869 8860
17511 8 tri 8858 8898 8869
17512 8 tri 8776 8816 8804
17513 8 tri 8784 8786 8825
17514 8 tri 8869 8825 8826
17515 8 tri 8860 8816 8825
17516 8 tri 8869 8901 8860
17517 8 tri 8928 8917 8890
17518 8 tri 8952 8984 8946
17519 8 tri 8890 8860 8901
17520 8 tri 8946 8928 8901
17521 8 tri 8901 8869 8913
17522 8 tri 8984 8952 8989
17523 8 tri 8913 8927 8952
17524 8 tri 8928 8946 8976
17525 8 tri 8989 9018 9030
17526 8 tri 8989 9030 8984
17527 8 tri 9051 9087 9071
17528 8 tri 8928 8976 8950
17529 8 tri 8984 9030 9015
17530 8 tri 8984 9015 8976
17531 8 tri 9056 9096 9057
17532 8 tri 8917 8928 8950
17533 8 tri 8901 8913 8946
17534 8 tri 8952 8946 8913
17535 8 tri 8984 8976 8946
17536 8 tri 8974 8955 8931
17537 8 tri 8950 8976 8985
17538 8 tri 9067 9027 9057
17539 8 tri 8985 8976 9014
17540 8 tri 8995 9008 8970
17541 8 tri 8985 9014 9027
17542 8 tri 9035 8992 9027
17543 8 tri 8954 8905 8914
17544 8 tri 9067 9076 9035
17545 8 tri 9062 9107 9080
17546 8 tri 8950 8953 8917
17547 8 tri 8953 8954 8914
17548 8 tri 8954 8953 8992
17549 8 tri 8914 8917 8953
17550 8 tri 8914 8875 8877
17551 8 tri 8906 8931 8955
17552 8 tri 8827 8794 8835
17553 8 tri 8796 8765 8804
17554 8 tri 8877 8850 8890
17555 8 tri 8804 8816 8850
17556 8 tri 8794 8796 8835
17557 8 tri 8758 8765 8796
17558 8 tri 8877 8833 8850
17559 8 tri 8835 8796 8833
17560 8 tri 8796 8794 8758
17561 8 tri 8835 8875 8827
17562 8 tri 8856 8837 8807
17563 8 tri 8807 8773 8827
17564 8 tri 8773 8735 8743
17565 8 tri 8707 8679 8712
17566 8 tri 8700 8670 8707
17567 8 tri 8691 8663 8706
17568 8 tri 8743 8712 8758
17569 8 tri 8679 8667 8712
17570 8 tri 8641 8667 8679
17571 8 tri 8565 8518 8546
17572 8 tri 8742 8731 8706
17573 8 tri 8712 8667 8691
17574 8 tri 8758 8731 8765
17575 8 tri 8712 8691 8731
17576 8 tri 8825 8786 8826
17577 8 tri 8756 8724 8753
17578 8 tri 8668 8690 8714
17579 8 tri 8710 8723 8753
17580 8 tri 8710 8753 8724
17581 8 tri 8760 8793 8753
17582 8 tri 8623 8668 8637
17583 8 tri 8690 8724 8714
17584 8 tri 8644 8690 8668
17585 8 tri 8669 8710 8690
17586 8 tri 8616 8634 8663
17587 8 tri 8715 8748 8742
17588 8 tri 8683 8715 8680
17589 8 tri 8683 8714 8715
17590 8 tri 8596 8637 8607
17591 8 tri 8637 8683 8651
17592 8 tri 8554 8600 8577
17593 8 tri 8644 8669 8690
17594 8 tri 8600 8644 8623
17595 8 tri 8622 8669 8644
17596 8 tri 8637 8596 8623
17597 8 tri 8564 8515 8549
17598 8 tri 8537 8571 8520
17599 8 tri 8622 8644 8600
17600 8 tri 8544 8591 8567
17601 8 tri 8634 8651 8680
17602 8 tri 8564 8607 8591
17603 8 tri 8564 8596 8607
17604 8 tri 8490 8546 8518
17605 8 tri 8639 8663 8691
17606 8 tri 8567 8616 8594
17607 8 tri 8591 8607 8634
17608 8 tri 8591 8634 8616
17609 8 tri 8607 8651 8634
17610 8 tri 8642 8641 8679
17611 8 tri 8639 8594 8616
17612 8 tri 8687 8655 8700
17613 8 tri 8598 8603 8642
17614 8 tri 8603 8611 8641
17615 8 tri 8568 8561 8514
17616 8 tri 8611 8639 8667
17617 8 tri 8611 8594 8639
17618 8 tri 8598 8561 8603
17619 8 tri 8598 8587 8558
17620 8 tri 8611 8565 8594
17621 8 tri 8611 8603 8568
17622 8 tri 8611 8568 8565
17623 8 tri 8603 8561 8568
17624 8 tri 8496 8546 8490
17625 8 tri 8567 8591 8616
17626 8 tri 8433 8490 8479
17627 8 tri 8565 8527 8518
17628 8 tri 8568 8514 8527
17629 8 tri 8435 8468 8436
17630 8 tri 8478 8514 8468
17631 8 tri 8468 8435 8478
17632 8 tri 8468 8475 8436
17633 8 tri 8433 8432 8490
17634 8 tri 8478 8434 8479
17635 8 tri 8478 8435 8434
17636 8 tri 8432 8496 8490
17637 8 tri 8489 8528 8496
17638 8 tri 8432 8431 8496
17639 8 tri 8469 8429 8428
17640 8 tri 8427 8503 8428
17641 8 tri 8498 8489 8430
17642 8 tri 8549 8515 8503
17643 8 tri 8469 8428 8503
17644 8 tri 8515 8498 8469
17645 8 tri 8564 8591 8544
17646 8 tri 8503 8515 8469
17647 8 tri 8564 8544 8515
17648 8 tri 8496 8528 8546
17649 8 tri 8489 8498 8544
17650 8 tri 8546 8567 8594
17651 8 tri 8528 8544 8567
17652 8 tri 8489 8544 8528
17653 8 tri 8498 8515 8544
17654 8 tri 8577 8549 8525
17655 8 tri 8596 8564 8549
17656 8 tri 8596 8577 8623
17657 8 tri 8596 8549 8577
17658 8 tri 8474 8502 8525
17659 8 tri 8425 8424 8481
17660 8 tri 8525 8554 8577
17661 8 tri 8520 8571 8554
17662 8 tri 8484 8541 8494
17663 8 tri 8571 8600 8554
17664 8 tri 8537 8541 8582
17665 8 tri 8537 8494 8541
17666 8 tri 8582 8571 8537
17667 8 tri 8582 8622 8571
17668 8 tri 8538 8563 8586
17669 8 tri 8586 8578 8542
17670 8 tri 8586 8563 8604
17671 8 tri 8586 8542 8538
17672 8 tri 8604 8569 8613
17673 8 tri 8563 8524 8569
17674 8 tri 8517 8569 8524
17675 8 tri 8497 8493 8542
17676 8 tri 8493 8488 8538
17677 8 tri 8420 8497 8483
17678 8 tri 8420 8419 8497
17679 8 tri 8483 8540 8526
17680 8 tri 8542 8578 8540
17681 8 tri 8417 8477 8488
17682 8 tri 8538 8542 8493
17683 8 tri 8517 8477 8466
17684 8 tri 8418 8493 8419
17685 8 tri 8524 8488 8477
17686 8 tri 8524 8538 8488
17687 8 tri 8466 8477 8416
17688 8 tri 8418 8417 8488
17689 8 tri 8421 8484 8422
17690 8 tri 8493 8418 8488
17691 8 tri 8481 8520 8502
17692 8 tri 8484 8494 8422
17693 8 tri 8503 8474 8525
17694 8 tri 8494 8481 8424
17695 8 tri 8494 8537 8481
17696 8 tri 8502 8426 8425
17697 8 tri 8474 8427 8426
17698 8 tri 8491 8443 8442
17699 8 tri 8471 8444 8443
17700 8 tri 8438 8482 8439
17701 8 tri 8437 8475 8438
17702 8 tri 8475 8482 8438
17703 8 tri 8436 8475 8437
17704 8 tri 8480 8440 8439
17705 8 tri 8522 8482 8475
17706 8 tri 8516 8480 8482
17707 8 tri 8522 8516 8482
17708 8 tri 8562 8608 8573
17709 8 tri 8514 8512 8468
17710 8 tri 8558 8587 8522
17711 8 tri 8516 8522 8562
17712 8 tri 8475 8512 8522
17713 8 tri 8561 8558 8512
17714 8 tri 8561 8598 8558
17715 8 tri 8670 8627 8642
17716 8 tri 8587 8598 8627
17717 8 tri 8649 8655 8687
17718 8 tri 8655 8608 8627
17719 8 tri 8659 8617 8615
17720 8 tri 8653 8638 8614
17721 8 tri 8727 8729 8694
17722 8 tri 8608 8587 8627
17723 8 tri 8562 8573 8516
17724 8 tri 8487 8532 8536
17725 8 tri 8615 8608 8649
17726 8 tri 8615 8573 8608
17727 8 tri 8615 8575 8573
17728 8 tri 8614 8638 8599
17729 8 tri 8615 8617 8575
17730 8 tri 8615 8649 8659
17731 8 tri 8687 8694 8649
17732 8 tri 8653 8614 8617
17733 8 tri 8552 8570 8599
17734 8 tri 8617 8659 8653
17735 8 tri 8694 8695 8659
17736 8 tri 8673 8638 8653
17737 8 tri 8519 8539 8570
17738 8 tri 8539 8536 8579
17739 8 tri 8617 8579 8575
17740 8 tri 8614 8570 8579
17741 8 tri 8441 8487 8492
17742 8 tri 8579 8570 8539
17743 8 tri 8516 8532 8480
17744 8 tri 8516 8573 8532
17745 8 tri 8575 8536 8532
17746 8 tri 8539 8491 8492
17747 8 tri 8480 8532 8487
17748 8 tri 8440 8487 8441
17749 8 tri 8440 8480 8487
17750 8 tri 8536 8492 8487
17751 8 tri 8536 8539 8492
17752 8 tri 8504 8519 8552
17753 8 tri 8471 8491 8519
17754 8 tri 8445 8462 8446
17755 8 tri 8510 8529 8464
17756 8 tri 8486 8470 8450
17757 8 tri 8495 8545 8501
17758 8 tri 8521 8583 8551
17759 8 tri 8462 8504 8535
17760 8 tri 8462 8445 8504
17761 8 tri 8560 8510 8535
17762 8 tri 8560 8529 8510
17763 8 tri 8630 8581 8599
17764 8 tri 8602 8584 8560
17765 8 tri 8630 8602 8581
17766 8 tri 8630 8656 8602
17767 8 tri 8674 8656 8630
17768 8 tri 8747 8752 8782
17769 8 tri 8495 8529 8545
17770 8 tri 8590 8583 8547
17771 8 tri 8656 8625 8602
17772 8 tri 8665 8698 8664
17773 8 tri 8584 8529 8560
17774 8 tri 8545 8547 8501
17775 8 tri 8584 8545 8529
17776 8 tri 8584 8590 8545
17777 8 tri 8621 8585 8583
17778 8 tri 8543 8508 8551
17779 8 tri 8590 8624 8583
17780 8 tri 8699 8739 8741
17781 8 tri 8681 8661 8702
17782 8 tri 8624 8626 8664
17783 8 tri 8597 8621 8643
17784 8 tri 8583 8624 8621
17785 8 tri 8597 8643 8631
17786 8 tri 8621 8661 8643
17787 8 tri 8597 8585 8621
17788 8 tri 8551 8583 8585
17789 8 tri 8589 8555 8597
17790 8 tri 8555 8543 8597
17791 8 tri 8585 8543 8551
17792 8 tri 8521 8508 8470
17793 8 tri 8583 8521 8547
17794 8 tri 8551 8508 8521
17795 8 tri 8486 8450 8449
17796 8 tri 8470 8451 8450
17797 8 tri 8501 8486 8449
17798 8 tri 8501 8547 8486
17799 8 tri 8543 8472 8508
17800 8 tri 8508 8472 8451
17801 8 tri 8506 8530 8473
17802 8 tri 8472 8452 8451
17803 8 tri 8506 8543 8555
17804 8 tri 8476 8505 8531
17805 8 tri 8447 8464 8495
17806 8 tri 8495 8501 8448
17807 8 tri 8446 8464 8447
17808 8 tri 8452 8472 8506
17809 8 tri 8505 8455 8454
17810 8 tri 8467 8485 8523
17811 8 tri 8460 6926 6829
17812 8 tri 8534 8566 8523
17813 8 tri 8553 8592 7010
17814 8 tri 8509 8467 8523
17815 8 tri 8509 8553 6971
17816 8 tri 8606 8640 8629
17817 8 tri 6971 8553 7010
17818 8 tri 8566 8606 8592
17819 8 tri 8606 8629 8592
17820 8 tri 7045 8629 7076
17821 8 tri 7045 8592 8629
17822 8 tri 8671 8658 8640
17823 8 tri 8671 8685 8658
17824 8 tri 8553 8566 8592
17825 8 tri 8609 8654 8640
17826 8 tri 8566 8609 8606
17827 8 tri 8666 8676 8704
17828 8 tri 8572 8593 8609
17829 8 tri 8580 8531 8557
17830 8 tri 8609 8593 8633
17831 8 tri 8455 8476 8456
17832 8 tri 8572 8548 8593
17833 8 tri 8534 8485 8499
17834 8 tri 8523 8566 8553
17835 8 tri 8572 8609 8566
17836 8 tri 8509 8523 8553
17837 8 tri 8485 8534 8523
17838 8 tri 8459 8458 8485
17839 8 tri 8460 8467 8509
17840 8 tri 8459 8485 8467
17841 8 tri 8500 8499 8457
17842 8 tri 8572 8534 8548
17843 8 tri 8485 8458 8499
17844 8 tri 8476 8531 8500
17845 8 tri 8548 8499 8500
17846 8 tri 8548 8534 8499
17847 8 tri 8572 8566 8534
17848 8 tri 8557 8531 8505
17849 8 tri 8548 8500 8531
17850 8 tri 8456 8476 8500
17851 8 tri 8505 8454 8473
17852 8 tri 8473 8454 8453
17853 8 tri 8452 8506 8453
17854 8 tri 8505 8476 8455
17855 8 tri 8530 8505 8473
17856 8 tri 8530 8557 8505
17857 8 tri 8453 8506 8473
17858 8 tri 8472 8543 8506
17859 8 tri 8631 8605 8589
17860 8 tri 8530 8506 8555
17861 8 tri 8555 8589 8530
17862 8 tri 8580 8593 8548
17863 8 tri 8530 8589 8557
17864 8 tri 8632 8676 8666
17865 8 tri 8557 8605 8580
17866 8 tri 8648 8692 8676
17867 8 tri 8593 8632 8633
17868 8 tri 8605 8631 8648
17869 8 tri 8631 8589 8597
17870 8 tri 8605 8557 8589
17871 8 tri 8605 8648 8632
17872 8 tri 8631 8677 8648
17873 8 tri 8732 8709 8726
17874 8 tri 8671 8654 8688
17875 8 tri 8701 8685 8671
17876 8 tri 7185 8732 8749
17877 8 tri 8701 8709 8685
17878 8 tri 8701 8726 8709
17879 8 tri 8745 8770 8751
17880 8 tri 8770 8777 8751
17881 8 tri 8772 8749 8751
17882 8 tri 8751 8777 8772
17883 8 tri 8832 8836 8847
17884 8 tri 8770 8790 8777
17885 8 tri 8790 8811 8813
17886 8 tri 8819 8813 8836
17887 8 tri 8841 8842 8867
17888 8 tri 8834 8841 8853
17889 8 tri 8933 8908 8923
17890 8 tri 7295 8832 8847
17891 8 tri 8819 8836 8832
17892 8 tri 8847 8836 8859
17893 8 tri 8772 8788 7234
17894 8 tri 8800 8819 8809
17895 8 tri 8809 8819 8832
17896 8 tri 8813 8811 8834
17897 8 tri 8788 8809 7254
17898 8 tri 8788 8800 8809
17899 8 tri 8859 8870 8847
17900 8 tri 8872 8880 8859
17901 8 tri 7361 8908 7387
17902 8 tri 8809 8832 7275
17903 8 tri 7275 8832 7295
17904 8 tri 7234 8788 7254
17905 8 tri 7210 8749 8772
17906 8 tri 7185 7159 8732
17907 8 tri 7234 7210 8772
17908 8 tri 7210 7185 8749
17909 8 tri 8685 7137 7107
17910 8 tri 8685 8709 7137
17911 8 tri 9028 9045 7588
17912 8 tri 7588 7558 9028
17913 8 tri 7620 7588 9045
17914 8 tri 8951 8958 8971
17915 8 tri 8990 7528 7498
17916 8 tri 8949 8938 8929
17917 8 tri 8886 7361 7338
17918 8 tri 8870 8886 7338
17919 8 tri 8886 8908 7361
17920 8 tri 8880 8886 8870
17921 8 tri 8900 8910 8923
17922 8 tri 8923 8908 8900
17923 8 tri 8886 8900 8908
17924 8 tri 7440 8951 7466
17925 8 tri 7440 7413 8933
17926 8 tri 8929 8938 8923
17927 8 tri 8933 7413 8908
17928 8 tri 8938 8933 8923
17929 8 tri 8951 7440 8933
17930 8 tri 8859 8880 8870
17931 8 tri 8872 8895 8880
17932 8 tri 8880 8900 8886
17933 8 tri 8880 8895 8900
17934 8 tri 8956 8969 8949
17935 8 tri 8951 8933 8938
17936 8 tri 8949 8958 8938
17937 8 tri 8971 7498 7466
17938 8 tri 8978 8998 8969
17939 8 tri 8981 8990 8971
17940 8 tri 8951 8971 7466
17941 8 tri 8990 9001 9006
17942 8 tri 8968 8981 8971
17943 8 tri 8968 8988 8981
17944 8 tri 8971 8990 7498
17945 8 tri 8981 9001 8990
17946 8 tri 7528 9006 7558
17947 8 tri 9020 9031 9038
17948 8 tri 9020 9006 9001
17949 8 tri 9028 7558 9006
17950 8 tri 9006 9020 9028
17951 8 tri 9009 8988 8998
17952 8 tri 9038 9031 9052
17953 8 tri 9020 9001 9009
17954 8 tri 8981 8988 9001
17955 8 tri 8978 8956 8965
17956 8 tri 9020 9009 9031
17957 8 tri 9001 8988 9009
17958 8 tri 8968 8969 8988
17959 8 tri 8968 8958 8949
17960 8 tri 9022 8998 9012
17961 8 tri 8988 8969 8998
17962 8 tri 9009 9022 9031
17963 8 tri 9009 8998 9022
17964 8 tri 8994 9019 8993
17965 8 tri 9029 9055 9046
17966 8 tri 9019 8994 9029
17967 8 tri 9011 8986 9025
17968 8 tri 9029 9011 9040
17969 8 tri 9000 8967 8975
17970 8 tri 8965 8967 8994
17971 8 tri 8942 8975 8967
17972 8 tri 9000 8975 9011
17973 8 tri 8942 8911 8948
17974 8 tri 8998 8978 8993
17975 8 tri 8969 8956 8978
17976 8 tri 8965 8994 8993
17977 8 tri 8967 9000 8994
17978 8 tri 8978 8965 8993
17979 8 tri 8939 8935 8915
17980 8 tri 8942 8941 8912
17981 8 tri 8915 8896 8888
17982 8 tri 8965 8941 8967
17983 8 tri 8916 8912 8941
17984 8 tri 8912 8889 8878
17985 8 tri 8916 8915 8888
17986 8 tri 8846 8855 8883
17987 8 tri 8922 8948 8911
17988 8 tri 8848 8868 8842
17989 8 tri 8888 8896 8867
17990 8 tri 8889 8888 8868
17991 8 tri 8889 8916 8888
17992 8 tri 8853 8841 8867
17993 8 tri 8868 8888 8867
17994 8 tri 8941 8939 8916
17995 8 tri 8935 8909 8915
17996 8 tri 8935 8939 8956
17997 8 tri 8915 8916 8939
17998 8 tri 8909 8929 8910
17999 8 tri 8935 8956 8949
18000 8 tri 8935 8949 8929
18001 8 tri 8969 8968 8949
18002 8 tri 8852 8853 8872
18003 8 tri 8867 8896 8876
18004 8 tri 8929 8909 8935
18005 8 tri 8910 8895 8909
18006 8 tri 8836 8834 8852
18007 8 tri 8842 8814 8848
18008 8 tri 8876 8853 8867
18009 8 tri 8791 8763 8764
18010 8 tri 8872 8853 8876
18011 8 tri 8852 8834 8853
18012 8 tri 8834 8811 8841
18013 8 tri 8811 8791 8818
18014 8 tri 8841 8811 8818
18015 8 tri 8834 8836 8813
18016 8 tri 8800 8813 8819
18017 8 tri 8790 8763 8791
18018 8 tri 8800 8790 8813
18019 8 tri 8800 8777 8790
18020 8 tri 8701 8688 8719
18021 8 tri 8654 8633 8666
18022 8 tri 8763 8770 8745
18023 8 tri 8763 8790 8770
18024 8 tri 8654 8666 8688
18025 8 tri 8633 8632 8666
18026 8 tri 8745 8737 8763
18027 8 tri 8745 8719 8737
18028 8 tri 8737 8764 8763
18029 8 tri 8737 8718 8746
18030 8 tri 8781 8795 8764
18031 8 tri 8811 8790 8791
18032 8 tri 8789 8757 8767
18033 8 tri 8781 8764 8746
18034 8 tri 8722 8721 8677
18035 8 tri 8746 8764 8737
18036 8 tri 8757 8746 8721
18037 8 tri 8757 8781 8746
18038 8 tri 8681 8677 8643
18039 8 tri 8721 8692 8677
18040 8 tri 8661 8681 8643
18041 8 tri 8702 8722 8681
18042 8 tri 8741 8722 8702
18043 8 tri 8757 8721 8722
18044 8 tri 8699 8741 8702
18045 8 tri 8767 8722 8741
18046 8 tri 8848 8824 8846
18047 8 tri 8767 8741 8780
18048 8 tri 8789 8781 8757
18049 8 tri 8789 8814 8781
18050 8 tri 8791 8795 8818
18051 8 tri 8791 8764 8795
18052 8 tri 8867 8842 8868
18053 8 tri 8818 8814 8842
18054 8 tri 8789 8824 8814
18055 8 tri 8878 8868 8848
18056 8 tri 8814 8824 8848
18057 8 tri 8789 8805 8824
18058 8 tri 8883 8878 8846
18059 8 tri 8878 8848 8846
18060 8 tri 8806 8780 8769
18061 8 tri 8805 8767 8780
18062 8 tri 8806 8769 8782
18063 8 tri 8780 8741 8739
18064 8 tri 8820 8806 8782
18065 8 tri 8883 8922 8911
18066 8 tri 8774 8752 8736
18067 8 tri 8782 8769 8747
18068 8 tri 8693 8717 8728
18069 8 tri 8769 8780 8739
18070 8 tri 8739 8728 8769
18071 8 tri 8717 8752 8747
18072 8 tri 8664 8699 8661
18073 8 tri 8664 8626 8665
18074 8 tri 8624 8664 8661
18075 8 tri 8626 8625 8665
18076 8 tri 8699 8698 8739
18077 8 tri 8699 8664 8698
18078 8 tri 8656 8665 8625
18079 8 tri 8656 8693 8665
18080 8 tri 8665 8693 8698
18081 8 tri 8674 8717 8693
18082 8 tri 8728 8717 8747
18083 8 tri 8674 8673 8711
18084 8 tri 8693 8728 8698
18085 8 tri 8747 8769 8728
18086 8 tri 8694 8729 8695
18087 8 tri 8729 8774 8736
18088 8 tri 8659 8695 8653
18089 8 tri 8736 8752 8711
18090 8 tri 8729 8736 8695
18091 8 tri 8752 8717 8711
18092 8 tri 8655 8670 8700
18093 8 tri 8655 8627 8670
18094 8 tri 8649 8694 8659
18095 8 tri 8687 8727 8694
18096 8 tri 8729 8727 8759
18097 8 tri 8687 8700 8727
18098 8 tri 8707 8735 8700
18099 8 tri 8743 8794 8773
18100 8 tri 8827 8773 8794
18101 8 tri 8768 8735 8773
18102 8 tri 8695 8736 8711
18103 8 tri 8729 8759 8774
18104 8 tri 8768 8797 8759
18105 8 tri 8792 8782 8752
18106 8 tri 8812 8792 8774
18107 8 tri 8829 8820 8792
18108 8 tri 8837 8812 8797
18109 8 tri 8829 8792 8812
18110 8 tri 8807 8797 8768
18111 8 tri 8807 8837 8797
18112 8 tri 8773 8807 8768
18113 8 tri 8827 8875 8856
18114 8 tri 8827 8856 8807
18115 8 tri 8856 8905 8881
18116 8 tri 8905 8856 8875
18117 8 tri 8905 8931 8881
18118 8 tri 8906 8881 8931
18119 8 tri 8837 8856 8881
18120 8 tri 8930 8885 8893
18121 8 tri 8857 8829 8863
18122 8 tri 8897 8906 8932
18123 8 tri 8897 8863 8906
18124 8 tri 8837 8863 8812
18125 8 tri 8857 8820 8829
18126 8 tri 8857 8863 8897
18127 8 tri 8829 8812 8863
18128 8 tri 8792 8820 8782
18129 8 tri 8857 8849 8820
18130 8 tri 8820 8849 8806
18131 8 tri 8846 8805 8823
18132 8 tri 8806 8849 8823
18133 8 tri 8885 8922 8883
18134 8 tri 8823 8855 8846
18135 8 tri 8849 8885 8855
18136 8 tri 8885 8883 8855
18137 8 tri 8911 8878 8883
18138 8 tri 8857 8893 8849
18139 8 tri 8857 8897 8893
18140 8 tri 8932 8934 8897
18141 8 tri 8986 9002 9025
18142 8 tri 8897 8934 8893
18143 8 tri 8970 9008 8973
18144 8 tri 8885 8930 8922
18145 8 tri 8930 8973 8960
18146 8 tri 8986 8948 8960
18147 8 tri 8975 8942 8948
18148 8 tri 8922 8960 8948
18149 8 tri 8930 8934 8973
18150 8 tri 8948 8986 8975
18151 8 tri 8960 9002 8986
18152 8 tri 8960 8973 9002
18153 8 tri 8934 8932 8970
18154 8 tri 8973 9023 9002
18155 8 tri 9008 9036 9053
18156 8 tri 9017 9036 8995
18157 8 tri 9080 9129 9099
18158 8 tri 8934 8970 8973
18159 8 tri 8932 8955 8970
18160 8 tri 8931 8954 8974
18161 8 tri 8974 9003 9017
18162 8 tri 9003 8974 8954
18163 8 tri 8931 8905 8954
18164 8 tri 8955 8974 8995
18165 8 tri 8954 8992 9003
18166 8 tri 9035 9003 8992
18167 8 tri 9062 9088 9107
18168 8 tri 9035 9048 9003
18169 8 tri 9048 9062 9017
18170 8 tri 9003 9048 9017
18171 8 tri 9048 9076 9088
18172 8 tri 9017 9062 9036
18173 8 tri 9088 9118 9134
18174 8 tri 9048 9088 9062
18175 8 tri 9048 9035 9076
18176 8 tri 9099 9068 9053
18177 8 tri 9068 9023 9053
18178 8 tri 9008 9053 9023
18179 8 tri 9036 9062 9080
18180 8 tri 9036 9080 9053
18181 8 tri 9107 9129 9080
18182 8 tri 9025 9042 9059
18183 8 tri 9053 9080 9099
18184 8 tri 9002 9042 9025
18185 8 tri 9023 9068 9042
18186 8 tri 9117 9131 9092
18187 8 tri 9092 9059 9083
18188 8 tri 9117 9092 9083
18189 8 tri 9075 9086 9055
18190 8 tri 9068 9099 9113
18191 8 tri 9131 9136 9106
18192 8 tri 9145 9099 9129
18193 8 tri 9113 9083 9068
18194 8 tri 9145 9113 9099
18195 8 tri 9117 9083 9113
18196 8 tri 9171 9195 9145
18197 8 tri 9178 9219 9184
18198 8 tri 9195 9219 9178
18199 8 tri 9184 9155 9146
18200 8 tri 9146 9155 9117
18201 8 tri 9211 9243 9229
18202 8 tri 9145 9178 9146
18203 8 tri 9213 9211 9186
18204 8 tri 9184 9219 9213
18205 8 tri 9310 9265 9303
18206 8 tri 9146 9178 9184
18207 8 tri 9195 9223 9239
18208 8 tri 9145 9195 9178
18209 8 tri 9145 9129 9171
18210 8 tri 9195 9239 9219
18211 8 tri 9223 9265 9239
18212 8 tri 9107 9134 9154
18213 8 tri 9223 9195 9171
18214 8 tri 9154 9134 9180
18215 8 tri 9180 9221 9197
18216 8 tri 9088 9134 9107
18217 8 tri 9118 9165 9134
18218 8 tri 9129 9154 9171
18219 8 tri 9129 9107 9154
18220 8 tri 9205 9221 9180
18221 8 tri 9257 9240 9221
18222 8 tri 9221 9240 9197
18223 8 tri 9280 9265 9240
18224 8 tri 9280 9257 9290
18225 8 tri 9280 9240 9257
18226 8 tri 9321 9279 9310
18227 8 tri 9239 9265 9279
18228 8 tri 9280 9303 9265
18229 8 tri 9340 9315 9355
18230 8 tri 9265 9310 9279
18231 8 tri 9303 9340 9345
18232 8 tri 9280 9315 9303
18233 8 tri 9280 9290 9315
18234 8 tri 9315 9340 9303
18235 8 tri 9315 9331 9355
18236 8 tri 9340 9355 9375
18237 8 tri 9331 9364 9374
18238 8 tri 9417 9374 9403
18239 8 tri 9355 9331 9374
18240 8 tri 9460 9492 9443
18241 8 tri 9374 9364 9403
18242 8 tri 9346 9345 9387
18243 8 tri 9414 9437 9457
18244 8 tri 9414 9395 9437
18245 8 tri 9375 9355 9395
18246 8 tri 9384 9346 9387
18247 8 tri 9310 9303 9345
18248 8 tri 9359 9346 9384
18249 8 tri 9310 9345 9346
18250 8 tri 9401 9390 9363
18251 8 tri 9363 9350 9323
18252 8 tri 9398 9359 9384
18253 8 tri 9339 9321 9359
18254 8 tri 9447 9398 9423
18255 8 tri 9419 9378 9398
18256 8 tri 9343 9313 9350
18257 8 tri 9378 9419 9401
18258 8 tri 9350 9363 9390
18259 8 tri 9419 9448 9401
18260 8 tri 9377 9343 9350
18261 8 tri 9261 9249 9219
18262 8 tri 9401 9363 9378
18263 8 tri 9350 9313 9323
18264 8 tri 9343 9311 9313
18265 8 tri 9284 9278 9249
18266 8 tri 9346 9321 9310
18267 8 tri 9284 9323 9313
18268 8 tri 9284 9261 9297
18269 8 tri 9297 9321 9339
18270 8 tri 9239 9261 9219
18271 8 tri 9279 9321 9297
18272 8 tri 9323 9297 9339
18273 8 tri 9261 9279 9297
18274 8 tri 9291 9263 9278
18275 8 tri 9213 9219 9249
18276 8 tri 9278 9284 9313
18277 8 tri 9249 9261 9284
18278 8 tri 9278 9243 9249
18279 8 tri 9213 9249 9243
18280 8 tri 9204 9174 9193
18281 8 tri 9213 9186 9184
18282 8 tri 9204 9214 9232
18283 8 tri 9229 9263 9246
18284 8 tri 9258 9274 9287
18285 8 tri 9246 9263 9274
18286 8 tri 9274 9263 9291
18287 8 tri 9229 9243 9263
18288 8 tri 9311 9278 9313
18289 8 tri 9263 9243 9278
18290 8 tri 9330 9311 9343
18291 8 tri 9291 9278 9311
18292 8 tri 9390 9377 9350
18293 8 tri 9368 9330 9343
18294 8 tri 9453 9493 9452
18295 8 tri 9368 9343 9377
18296 8 tri 9444 9402 9439
18297 8 tri 9412 9379 9370
18298 8 tri 9418 9404 9377
18299 8 tri 9402 9368 9404
18300 8 tri 9352 9318 9342
18301 8 tri 9274 9291 9309
18302 8 tri 9370 9330 9368
18303 8 tri 9309 9291 9330
18304 8 tri 9324 9318 9352
18305 8 tri 9309 9330 9342
18306 8 tri 9342 9379 9352
18307 8 tri 9370 9402 9412
18308 8 tri 9444 9412 9402
18309 8 tri 9451 9465 9420
18310 8 tri 9352 9353 9324
18311 8 tri 9376 9394 9366
18312 8 tri 9376 9382 9405
18313 8 tri 9353 9352 9382
18314 8 tri 9299 9318 9324
18315 8 tri 9299 9271 9287
18316 8 tri 9308 9304 9325
18317 8 tri 9324 9353 9327
18318 8 tri 9324 9304 9299
18319 8 tri 9267 9276 9256
18320 8 tri 9217 9224 9237
18321 8 tri 9245 9232 9258
18322 8 tri 9258 9287 9271
18323 8 tri 9274 9309 9287
18324 8 tri 9237 9224 9245
18325 8 tri 9224 9232 9245
18326 8 tri 9245 9258 9271
18327 8 tri 9232 9246 9258
18328 8 tri 9262 9237 9245
18329 8 tri 9202 9187 9204
18330 8 tri 9267 9247 9262
18331 8 tri 9208 9191 9189
18332 8 tri 9152 9133 9159
18333 8 tri 9115 9097 9086
18334 8 tri 9173 9152 9159
18335 8 tri 9089 9074 9069
18336 8 tri 9163 9139 9152
18337 8 tri 9127 9108 9133
18338 8 tri 9136 9167 9144
18339 8 tri 9204 9232 9224
18340 8 tri 9144 9167 9174
18341 8 tri 9214 9246 9232
18342 8 tri 9174 9204 9187
18343 8 tri 9193 9214 9204
18344 8 tri 9194 9214 9193
18345 8 tri 9229 9246 9214
18346 8 tri 9214 9194 9229
18347 8 tri 9167 9136 9160
18348 8 tri 9186 9211 9194
18349 8 tri 9213 9243 9211
18350 8 tri 9092 9131 9106
18351 8 tri 9155 9186 9160
18352 8 tri 9160 9186 9194
18353 8 tri 9155 9184 9186
18354 8 tri 9193 9167 9194
18355 8 tri 9136 9131 9160
18356 8 tri 9194 9167 9160
18357 8 tri 9193 9174 9167
18358 8 tri 9133 9119 9144
18359 8 tri 9133 9108 9119
18360 8 tri 9061 9037 9046
18361 8 tri 9086 9075 9106
18362 8 tri 9097 9115 9119
18363 8 tri 9086 9106 9115
18364 8 tri 9075 9055 9040
18365 8 tri 9061 9072 9084
18366 8 tri 9059 9075 9040
18367 8 tri 9092 9106 9075
18368 8 tri 9061 9046 9072
18369 8 tri 9019 9029 9046
18370 8 tri 9055 9072 9046
18371 8 tri 9086 9097 9072
18372 8 tri 9047 9037 9061
18373 8 tri 9022 9012 9037
18374 8 tri 9097 9084 9072
18375 8 tri 9069 9052 9047
18376 8 tri 9061 9084 9069
18377 8 tri 9097 9119 9108
18378 8 tri 9091 9089 9111
18379 8 tri 9084 9097 9108
18380 8 tri 9139 9127 9152
18381 8 tri 9111 9089 9108
18382 8 tri 9069 9047 9061
18383 8 tri 9052 9031 9047
18384 8 tri 9084 9089 9069
18385 8 tri 9108 9127 9111
18386 8 tri 9060 9038 9052
18387 8 tri 9045 9028 9038
18388 8 tri 9074 9060 9052
18389 8 tri 9074 9079 9060
18390 8 tri 9060 9079 9063
18391 8 tri 9091 9110 9095
18392 8 tri 9111 9128 9110
18393 8 tri 7852 9166 9183
18394 8 tri 9074 9091 9079
18395 8 tri 9074 9089 9091
18396 8 tri 9128 9111 9127
18397 8 tri 9110 9091 9111
18398 8 tri 9127 9139 9128
18399 8 tri 9152 9173 9163
18400 8 tri 9202 9189 9173
18401 8 tri 9170 9150 9163
18402 8 tri 9173 9189 9163
18403 8 tri 9217 9237 9228
18404 8 tri 9203 9191 9208
18405 8 tri 9183 9170 9191
18406 8 tri 9236 9220 9228
18407 8 tri 9203 9183 9191
18408 8 tri 9139 9150 9128
18409 8 tri 9139 9163 9150
18410 8 tri 9189 9170 9163
18411 8 tri 9166 9149 9150
18412 8 tri 7784 7750 9132
18413 8 tri 9114 7719 9095
18414 8 tri 9183 9166 9170
18415 8 tri 9183 7883 7852
18416 8 tri 9220 9203 9208
18417 8 tri 9236 7977 7949
18418 8 tri 9203 7883 9183
18419 8 tri 7883 9203 7914
18420 8 tri 9149 9166 7818
18421 8 tri 9166 7852 7818
18422 8 tri 7818 7784 9149
18423 8 tri 7719 7685 9095
18424 8 tri 7784 9132 9149
18425 8 tri 7750 9114 9132
18426 8 tri 9091 9095 9079
18427 8 tri 9114 7750 7719
18428 8 tri 9110 9114 9095
18429 8 tri 9110 9128 9114
18430 8 tri 9063 7653 7620
18431 8 tri 9063 9079 7653
18432 8 tri 8010 9256 9276
18433 8 tri 9341 8095 9320
18434 8 tri 8218 9436 8248
18435 8 tri 9456 9436 9422
18436 8 tri 8184 8153 9385
18437 8 tri 9341 9325 9349
18438 8 tri 8153 8125 9361
18439 8 tri 7977 9256 8010
18440 8 tri 9247 9267 9256
18441 8 tri 9295 8038 9276
18442 8 tri 8069 8038 9295
18443 8 tri 9308 9325 9320
18444 8 tri 9341 9361 8125
18445 8 tri 9304 9286 9281
18446 8 tri 9295 9276 9286
18447 8 tri 9228 9220 9208
18448 8 tri 9236 7949 9220
18449 8 tri 9217 9228 9208
18450 8 tri 9247 9256 9236
18451 8 tri 9202 9217 9208
18452 8 tri 9202 9224 9217
18453 8 tri 9237 9247 9228
18454 8 tri 9237 9262 9247
18455 8 tri 9281 9267 9262
18456 8 tri 9286 9276 9267
18457 8 tri 9299 9304 9281
18458 8 tri 9327 9325 9304
18459 8 tri 9295 9308 9320
18460 8 tri 9349 9353 9376
18461 8 tri 9286 9308 9295
18462 8 tri 9286 9304 9308
18463 8 tri 9325 9341 9320
18464 8 tri 9349 9327 9353
18465 8 tri 9408 9385 9394
18466 8 tri 9361 9341 9366
18467 8 tri 8184 9385 9408
18468 8 tri 9361 9366 9385
18469 8 tri 9341 9349 9366
18470 8 tri 9325 9327 9349
18471 8 tri 9382 9376 9353
18472 8 tri 9405 9394 9376
18473 8 tri 9499 9452 9493
18474 8 tri 9439 9402 9404
18475 8 tri 9499 9474 9452
18476 8 tri 9486 9519 9535
18477 8 tri 9519 9486 9474
18478 8 tri 9451 9412 9444
18479 8 tri 6505 6530 9572
18480 8 tri 9538 9516 9495
18481 8 tri 9439 9474 9444
18482 8 tri 9499 9519 9474
18483 8 tri 9444 9486 9451
18484 8 tri 9444 9474 9486
18485 8 tri 9534 9606 9578
18486 8 tri 9595 6481 9583
18487 8 tri 9519 9547 9583
18488 8 tri 9519 9499 9547
18489 8 tri 9578 6437 6460
18490 8 tri 6481 6505 9583
18491 8 tri 9535 9572 9593
18492 8 tri 9519 9572 9535
18493 8 tri 9583 6505 9572
18494 8 tri 9535 9593 9538
18495 8 tri 6588 6619 9598
18496 8 tri 9538 9567 9516
18497 8 tri 9567 9598 9553
18498 8 tri 9567 6588 9598
18499 8 tri 9593 6555 9567
18500 8 tri 9512 9525 9561
18501 8 tri 6652 6691 9561
18502 8 tri 6619 9592 9598
18503 8 tri 6619 6652 9592
18504 8 tri 9505 9546 9552
18505 8 tri 9525 9498 9553
18506 8 tri 9516 9553 9498
18507 8 tri 9516 9567 9553
18508 8 tri 9489 9512 9546
18509 8 tri 9489 9456 9468
18510 8 tri 9498 9465 9516
18511 8 tri 9451 9486 9495
18512 8 tri 9468 9525 9512
18513 8 tri 9553 9592 9525
18514 8 tri 9405 9420 9441
18515 8 tri 9382 9379 9420
18516 8 tri 9495 9465 9451
18517 8 tri 9498 9441 9465
18518 8 tri 9441 9427 9405
18519 8 tri 9441 9468 9427
18520 8 tri 9525 9468 9498
18521 8 tri 9456 9427 9468
18522 8 tri 9408 9436 8218
18523 8 tri 9408 9422 9436
18524 8 tri 8363 8319 9552
18525 8 tri 8184 9408 8218
18526 8 tri 9505 8319 8281
18527 8 tri 8319 9505 9552
18528 8 tri 9466 9489 9505
18529 8 tri 6779 8363 9604
18530 8 tri 8363 9552 9604
18531 8 tri 6734 9602 6691
18532 8 tri 9567 6555 6588
18533 8 tri 9593 6530 6555
18534 8 tri 9597 6372 6393
18535 8 tri 9578 9606 6437
18536 8 tri 9606 6415 6437
18537 8 tri 6481 9595 6460
18538 8 tri 9534 9558 9606
18539 8 tri 9605 6415 9606
18540 8 tri 9605 6393 6415
18541 8 tri 9606 9558 9605
18542 8 tri 9500 9487 9537
18543 8 tri 9510 9464 9500
18544 8 tri 9554 9605 9558
18545 8 tri 9540 9578 9595
18546 8 tri 9540 9534 9578
18547 8 tri 9493 9534 9540
18548 8 tri 9493 9453 9491
18549 8 tri 9424 9453 9418
18550 8 tri 9452 9404 9418
18551 8 tri 9390 9424 9418
18552 8 tri 9534 9510 9558
18553 8 tri 9401 9424 9390
18554 8 tri 9401 9448 9424
18555 8 tri 9424 9464 9453
18556 8 tri 9500 9554 9510
18557 8 tri 9493 9491 9534
18558 8 tri 9453 9464 9491
18559 8 tri 9558 9510 9554
18560 8 tri 9491 9464 9510
18561 8 tri 9448 9500 9464
18562 8 tri 9448 9455 9487
18563 8 tri 9398 9447 9419
18564 8 tri 9487 9500 9448
18565 8 tri 9490 9487 9455
18566 8 tri 9490 9530 9487
18567 8 tri 9387 9423 9384
18568 8 tri 9483 9457 9437
18569 8 tri 9419 9447 9455
18570 8 tri 9423 9461 9447
18571 8 tri 9479 9483 9514
18572 8 tri 9423 9387 9426
18573 8 tri 9490 9488 9536
18574 8 tri 9490 9447 9488
18575 8 tri 9565 9542 9509
18576 8 tri 9488 9461 9509
18577 8 tri 9500 9537 9554
18578 8 tri 9487 9530 9537
18579 8 tri 9580 9581 6352
18580 8 tri 9536 9542 9591
18581 8 tri 9605 9597 6393
18582 8 tri 9554 9537 9597
18583 8 tri 9597 9580 6372
18584 8 tri 9581 9536 9591
18585 8 tri 9581 9591 6327
18586 8 tri 9479 9461 9426
18587 8 tri 6230 9586 6205
18588 8 tri 9457 9483 9479
18589 8 tri 6230 9559 9586
18590 8 tri 9479 9509 9461
18591 8 tri 9601 9544 9559
18592 8 tri 9601 9565 9544
18593 8 tri 6280 9565 9601
18594 8 tri 9591 9542 9565
18595 8 tri 9565 9509 9544
18596 8 tri 9542 9488 9509
18597 8 tri 9423 9426 9461
18598 8 tri 9387 9414 9426
18599 8 tri 9509 9479 9544
18600 8 tri 9482 9437 9443
18601 8 tri 9375 9414 9387
18602 8 tri 9375 9395 9414
18603 8 tri 9426 9457 9479
18604 8 tri 9426 9414 9457
18605 8 tri 9532 9514 9483
18606 8 tri 9514 9544 9479
18607 8 tri 9482 9532 9483
18608 8 tri 9559 9544 9514
18609 8 tri 9532 9482 9526
18610 8 tri 9417 9395 9374
18611 8 tri 9482 9443 9492
18612 8 tri 9437 9395 9443
18613 8 tri 9526 9482 9492
18614 8 tri 9483 9437 9482
18615 8 tri 9442 9417 9403
18616 8 tri 9443 9395 9417
18617 8 tri 9492 9460 9506
18618 8 tri 9403 9364 9396
18619 8 tri 9417 9460 9443
18620 8 tri 9442 9485 9460
18621 8 tri 9460 9485 9506
18622 8 tri 9484 9508 9539
18623 8 tri 9599 9582 9543
18624 8 tri 9599 9543 9555
18625 8 tri 9574 9532 9526
18626 8 tri 9586 9559 9532
18627 8 tri 9526 9543 9582
18628 8 tri 9492 9506 9543
18629 8 tri 9586 9532 9574
18630 8 tri 6102 6127 9589
18631 8 tri 9539 9529 9484
18632 8 tri 6127 9599 9589
18633 8 tri 9599 6152 9582
18634 8 tri 9599 6127 6152
18635 8 tri 9574 6180 6205
18636 8 tri 9582 6152 6180
18637 8 tri 6256 9559 6230
18638 8 tri 6256 6280 9601
18639 8 tri 9518 9564 9566
18640 8 tri 9568 9523 9590
18641 8 tri 9585 5588 5620
18642 8 tri 9566 5718 5751
18643 8 tri 9551 9541 9584
18644 8 tri 5652 5686 9568
18645 8 tri 5455 5489 9584
18646 8 tri 9562 5557 5588
18647 8 tri 9584 9594 9551
18648 8 tri 5489 5523 9594
18649 8 tri 9600 5523 5557
18650 8 tri 9585 9562 5588
18651 8 tri 9594 5523 9600
18652 8 tri 9590 9585 5620
18653 8 tri 9524 9511 9562
18654 8 tri 9550 9551 9600
18655 8 tri 9562 9511 9550
18656 8 tri 9413 9397 9373
18657 8 tri 5557 9562 9600
18658 8 tri 9585 9590 9549
18659 8 tri 9585 9524 9562
18660 8 tri 9413 9373 9381
18661 8 tri 9562 9550 9600
18662 8 tri 9511 9467 9501
18663 8 tri 9549 9524 9585
18664 8 tri 9497 9523 9475
18665 8 tri 5686 9564 9568
18666 8 tri 9432 9472 9425
18667 8 tri 9590 9523 9549
18668 8 tri 9517 9472 9475
18669 8 tri 9523 9568 9517
18670 8 tri 5686 5718 9564
18671 8 tri 5652 9568 9590
18672 8 tri 9564 9517 9568
18673 8 tri 9515 9563 9531
18674 8 tri 9566 5751 9563
18675 8 tri 9515 9566 9563
18676 8 tri 9564 5718 9566
18677 8 tri 9513 9478 9531
18678 8 tri 9472 9517 9518
18679 8 tri 9471 9518 9515
18680 8 tri 9517 9564 9518
18681 8 tri 9560 9513 9531
18682 8 tri 9545 9496 9513
18683 8 tri 9545 9522 9496
18684 8 tri 9522 9575 9527
18685 8 tri 9570 9575 9522
18686 8 tri 9571 9528 9527
18687 8 tri 5909 9575 9570
18688 8 tri 5939 9571 9575
18689 8 tri 9560 9545 9513
18690 8 tri 9570 9522 9545
18691 8 tri 9563 9587 9531
18692 8 tri 5848 9596 9560
18693 8 tri 9531 9587 9560
18694 8 tri 9563 5782 9587
18695 8 tri 9560 9596 9545
18696 8 tri 9560 5816 5848
18697 8 tri 9587 5782 5816
18698 8 tri 9570 9596 5877
18699 8 tri 9570 5877 5909
18700 8 tri 9596 5848 5877
18701 8 tri 5909 5939 9575
18702 8 tri 6019 9588 5989
18703 8 tri 5939 5964 9571
18704 8 tri 6019 9577 9588
18705 8 tri 9579 6102 9589
18706 8 tri 6102 9579 6075
18707 8 tri 9589 9555 9529
18708 8 tri 6075 9579 9577
18709 8 tri 9556 9577 9539
18710 8 tri 6047 6075 9577
18711 8 tri 9504 9556 9508
18712 8 tri 9588 9577 9556
18713 8 tri 5964 9576 9571
18714 8 tri 9533 9504 9480
18715 8 tri 9527 9528 9494
18716 8 tri 9576 9588 9533
18717 8 tri 9576 9533 9528
18718 8 tri 9588 9556 9533
18719 8 tri 9589 9529 9579
18720 8 tri 9555 9506 9529
18721 8 tri 9556 9539 9508
18722 8 tri 9579 9529 9539
18723 8 tri 9442 9484 9485
18724 8 tri 9442 9403 9438
18725 8 tri 9403 9396 9438
18726 8 tri 9421 9458 9463
18727 8 tri 9442 9438 9484
18728 8 tri 9396 9421 9438
18729 8 tri 9372 9421 9396
18730 8 tri 9392 9367 9410
18731 8 tri 9484 9463 9508
18732 8 tri 9438 9421 9463
18733 8 tri 9528 9480 9494
18734 8 tri 9504 9458 9480
18735 8 tri 9450 9473 9429
18736 8 tri 9496 9522 9473
18737 8 tri 9531 9478 9515
18738 8 tri 9433 9425 9471
18739 8 tri 9471 9478 9433
18740 8 tri 9471 9515 9478
18741 8 tri 9362 9393 9400
18742 8 tri 9354 9391 9393
18743 8 tri 9513 9469 9478
18744 8 tri 9400 9393 9435
18745 8 tri 9410 9454 9428
18746 8 tri 9429 9473 9454
18747 8 tri 9450 9469 9496
18748 8 tri 9435 9478 9469
18749 8 tri 9344 9369 9389
18750 8 tri 9344 9328 9369
18751 8 tri 9302 9288 9328
18752 8 tri 9215 9225 9181
18753 8 tri 9393 9391 9433
18754 8 tri 9351 9317 9305
18755 8 tri 9317 9283 9275
18756 8 tri 9215 9260 9225
18757 8 tri 9322 9317 9354
18758 8 tri 9305 9264 9294
18759 8 tri 9322 9288 9283
18760 8 tri 9328 9344 9302
18761 8 tri 9326 9289 9302
18762 8 tri 9260 9259 9225
18763 8 tri 9344 9326 9302
18764 8 tri 9250 9290 9257
18765 8 tri 9389 9367 9344
18766 8 tri 9347 9332 9307
18767 8 tri 9428 9392 9410
18768 8 tri 9392 9347 9367
18769 8 tri 9367 9347 9326
18770 8 tri 9372 9332 9347
18771 8 tri 9372 9392 9421
18772 8 tri 9372 9347 9392
18773 8 tri 9270 9298 9250
18774 8 tri 9332 9331 9298
18775 8 tri 9326 9307 9289
18776 8 tri 9332 9298 9307
18777 8 tri 9231 9270 9250
18778 8 tri 9298 9290 9250
18779 8 tri 9225 9259 9231
18780 8 tri 9289 9307 9259
18781 8 tri 9205 9231 9250
18782 8 tri 9259 9307 9270
18783 8 tri 9143 9181 9190
18784 8 tri 9181 9177 9215
18785 8 tri 9231 9205 9190
18786 8 tri 9250 9221 9205
18787 8 tri 9225 9231 9190
18788 8 tri 9259 9270 9231
18789 8 tri 9153 9165 9118
18790 8 tri 9205 9180 9165
18791 8 tri 9088 9076 9118
18792 8 tri 9035 9027 9067
18793 8 tri 9165 9153 9190
18794 8 tri 9118 9109 9153
18795 8 tri 9014 9057 9027
18796 8 tri 9109 9118 9076
18797 8 tri 9101 9109 9067
18798 8 tri 9101 9143 9109
18799 8 tri 9137 9181 9143
18800 8 tri 9190 9153 9143
18801 8 tri 9177 9181 9137
18802 8 tri 9225 9190 9181
18803 8 tri 9098 9135 9096
18804 8 tri 9135 9177 9137
18805 8 tri 9030 9056 9015
18806 8 tri 9120 9087 9125
18807 8 tri 9067 9057 9101
18808 8 tri 9014 9056 9057
18809 8 tri 9030 9071 9056
18810 8 tri 9030 9018 9051
18811 8 tri 9087 9120 9071
18812 8 tri 9135 9137 9096
18813 8 tri 9135 9120 9164
18814 8 tri 9098 9071 9120
18815 8 tri 9120 9135 9098
18816 8 tri 9164 9177 9135
18817 8 tri 9158 9196 9164
18818 8 tri 9182 9168 9198
18819 8 tri 9196 9207 9164
18820 8 tri 9207 9215 9177
18821 8 tri 9233 9244 9207
18822 8 tri 9248 9288 9260
18823 8 tri 9244 9248 9207
18824 8 tri 9260 9289 9259
18825 8 tri 9248 9260 9215
18826 8 tri 9288 9302 9260
18827 8 tri 9288 9248 9283
18828 8 tri 9207 9196 9233
18829 8 tri 9207 9248 9215
18830 8 tri 9244 9283 9248
18831 8 tri 9264 9233 9218
18832 8 tri 9275 9244 9233
18833 8 tri 9273 9294 9253
18834 8 tri 9275 9233 9264
18835 8 tri 9337 9306 9300
18836 8 tri 9253 9227 9241
18837 8 tri 9179 9201 9209
18838 8 tri 9269 9251 9285
18839 8 tri 9179 9198 9168
18840 8 tri 9218 9233 9196
18841 8 tri 9227 9218 9198
18842 8 tri 9227 9253 9218
18843 8 tri 9142 9182 9158
18844 8 tri 9198 9218 9182
18845 8 tri 9030 9051 9071
18846 8 tri 9018 9032 9051
18847 8 tri 9032 9066 9051
18848 8 tri 9032 9044 9066
18849 8 tri 9010 9044 9032
18850 8 tri 9043 9065 9044
18851 8 tri 9044 9065 9081
18852 8 tri 9043 9049 9073
18853 8 tri 9116 9103 9081
18854 8 tri 9116 9142 9103
18855 8 tri 9142 9147 9168
18856 8 tri 9116 9094 9121
18857 8 tri 9147 9179 9168
18858 8 tri 9209 9227 9198
18859 8 tri 9065 9094 9081
18860 8 tri 9100 9126 9121
18861 8 tri 9116 9121 9147
18862 8 tri 9094 9100 9121
18863 8 tri 9024 9049 9043
18864 8 tri 9054 9078 9049
18865 8 tri 9043 9073 9065
18866 8 tri 9078 9100 9073
18867 8 tri 9147 9151 9179
18868 8 tri 9147 9121 9151
18869 8 tri 9192 9172 9169
18870 8 tri 9179 9151 9172
18871 8 tri 9172 9201 9179
18872 8 tri 9238 9254 9266
18873 8 tri 9179 9209 9198
18874 8 tri 9201 9192 9212
18875 8 tri 9251 9226 9238
18876 8 tri 9209 9201 9226
18877 8 tri 9253 9241 9273
18878 8 tri 9227 9209 9241
18879 8 tri 9273 9269 9300
18880 8 tri 9241 9226 9251
18881 8 tri 9266 9251 9238
18882 8 tri 9269 9241 9251
18883 8 tri 9358 9348 9329
18884 8 tri 9300 9269 9285
18885 8 tri 9301 9319 9285
18886 8 tri 9300 9285 9319
18887 8 tri 9333 9337 9365
18888 8 tri 9300 9319 9337
18889 8 tri 9381 9348 9358
18890 8 tri 9373 9337 9348
18891 8 tri 9524 9549 9497
18892 8 tri 9365 9337 9373
18893 8 tri 9333 9306 9337
18894 8 tri 9273 9300 9306
18895 8 tri 9399 9365 9397
18896 8 tri 9371 9333 9365
18897 8 tri 9338 9294 9333
18898 8 tri 9305 9275 9264
18899 8 tri 9333 9294 9306
18900 8 tri 9338 9371 9388
18901 8 tri 9338 9305 9294
18902 8 tri 9317 9275 9305
18903 8 tri 9388 9351 9338
18904 8 tri 9391 9354 9351
18905 8 tri 9432 9388 9409
18906 8 tri 9391 9351 9388
18907 8 tri 9371 9338 9333
18908 8 tri 9351 9305 9338
18909 8 tri 9475 9432 9449
18910 8 tri 9371 9365 9399
18911 8 tri 9371 9409 9388
18912 8 tri 9434 9397 9431
18913 8 tri 9471 9425 9472
18914 8 tri 9391 9388 9425
18915 8 tri 9388 9432 9425
18916 8 tri 9409 9449 9432
18917 8 tri 9497 9449 9477
18918 8 tri 9409 9399 9449
18919 8 tri 9517 9475 9523
18920 8 tri 9472 9432 9475
18921 8 tri 9524 9477 9511
18922 8 tri 9449 9399 9434
18923 8 tri 9449 9497 9475
18924 8 tri 9477 9524 9497
18925 8 tri 9501 9467 9459
18926 8 tri 9511 9477 9467
18927 8 tri 9413 9431 9397
18928 8 tri 9467 9477 9434
18929 8 tri 9467 9434 9431
18930 8 tri 9477 9449 9434
18931 8 tri 9386 9415 9381
18932 8 tri 9459 9431 9413
18933 8 tri 9381 9415 9413
18934 8 tri 9503 9551 9501
18935 8 tri 9503 9501 9459
18936 8 tri 9550 9511 9501
18937 8 tri 9446 9445 9476
18938 8 tri 9541 9551 9503
18939 8 tri 9358 9329 9335
18940 8 tri 9348 9319 9329
18941 8 tri 9329 9301 9312
18942 8 tri 9301 9285 9282
18943 8 tri 9292 9312 9282
18944 8 tri 9329 9319 9301
18945 8 tri 9293 9296 9277
18946 8 tri 9282 9254 9268
18947 8 tri 9329 9312 9335
18948 8 tri 9301 9282 9312
18949 8 tri 9312 9316 9335
18950 8 tri 9334 9357 9356
18951 8 tri 9336 9335 9316
18952 8 tri 9316 9296 9314
18953 8 tri 9316 9334 9336
18954 8 tri 9272 3518 9293
18955 8 tri 3546 3574 9314
18956 8 tri 9268 9292 9282
18957 8 tri 9314 9296 9293
18958 8 tri 9316 9292 9296
18959 8 tri 3518 3546 9293
18960 8 tri 3574 9334 9314
18961 8 tri 3489 9272 9252
18962 8 tri 9296 9292 9277
18963 8 tri 9268 9242 9255
18964 8 tri 3489 3518 9272
18965 8 tri 9210 9216 9234
18966 8 tri 9200 3379 3403
18967 8 tri 9216 9235 9234
18968 8 tri 9216 3403 3433
18969 8 tri 9210 9234 9222
18970 8 tri 9255 9272 9277
18971 8 tri 9235 9252 9234
18972 8 tri 9235 3460 9252
18973 8 tri 9234 9242 9222
18974 8 tri 9234 9252 9255
18975 8 tri 9268 9255 9277
18976 8 tri 9242 9234 9255
18977 8 tri 9242 9268 9254
18978 8 tri 9277 9292 9268
18979 8 tri 9212 9238 9226
18980 8 tri 9212 9192 9206
18981 8 tri 9282 9266 9254
18982 8 tri 9285 9251 9266
18983 8 tri 9201 9212 9226
18984 8 tri 9192 9188 9206
18985 8 tri 9212 9230 9238
18986 8 tri 9222 9242 9230
18987 8 tri 9148 9140 9162
18988 8 tri 9156 9161 9175
18989 8 tri 9140 9123 9138
18990 8 tri 9138 9161 9156
18991 8 tri 9199 9206 9188
18992 8 tri 9222 9230 9206
18993 8 tri 9104 9123 9124
18994 8 tri 9090 9085 9070
18995 8 tri 9169 9148 9162
18996 8 tri 9124 9123 9140
18997 8 tri 9172 9148 9169
18998 8 tri 9126 9124 9148
18999 8 tri 9102 9104 9124
19000 8 tri 9090 9070 9077
19001 8 tri 9033 9041 9021
19002 8 tri 9064 9054 9041
19003 8 tri 9126 9102 9124
19004 8 tri 9100 9078 9102
19005 8 tri 9082 9085 9104
19006 8 tri 9082 9064 9085
19007 8 tri 9112 9122 9105
19008 8 tri 9105 9104 9085
19009 8 tri 9104 9105 9123
19010 8 tri 9123 9122 9138
19011 8 tri 9105 9090 9112
19012 8 tri 3240 3267 9112
19013 8 tri 9130 9141 9122
19014 8 tri 3129 9039 9026
19015 8 tri 3129 3159 9039
19016 8 tri 3184 9077 9058
19017 8 tri 9070 9050 9058
19018 8 tri 3159 3184 9058
19019 8 tri 3215 9093 9077
19020 8 tri 9090 9093 9112
19021 8 tri 9090 9077 9093
19022 8 tri 9093 3240 9112
19023 8 tri 3267 3296 9130
19024 8 tri 9130 3296 9141
19025 8 tri 9176 3350 3379
19026 8 tri 3296 9157 9141
19027 8 tri 3325 9176 9157
19028 8 tri 9199 9185 9200
19029 8 tri 9161 9157 9176
19030 8 tri 9200 9185 9176
19031 8 tri 9199 9175 9185
19032 8 tri 9199 9210 9222
19033 8 tri 9199 9200 9210
19034 8 tri 3296 3325 9157
19035 8 tri 9112 3267 9130
19036 8 tri 3215 3240 9093
19037 8 tri 3215 9077 3184
19038 8 tri 9216 3433 9235
19039 8 tri 9293 3546 9314
19040 8 tri 3743 9462 9430
19041 8 tri 3574 3606 9334
19042 8 tri 9356 9357 9380
19043 8 tri 9334 3606 9357
19044 8 tri 9357 3637 9380
19045 8 tri 9357 3606 3637
19046 8 tri 9430 9406 3704
19047 8 tri 9380 3637 3668
19048 8 tri 9406 9430 9411
19049 8 tri 3704 3743 9430
19050 8 tri 9360 9356 9383
19051 8 tri 9336 9334 9356
19052 8 tri 9380 9406 9411
19053 8 tri 3668 3704 9406
19054 8 tri 9416 9383 9411
19055 8 tri 9360 9335 9336
19056 8 tri 9386 9360 9383
19057 8 tri 9358 9335 9360
19058 8 tri 9440 9445 9416
19059 8 tri 9381 9358 9386
19060 8 tri 9416 9415 9386
19061 8 tri 9446 9413 9415
19062 8 tri 9476 9445 9470
19063 8 tri 9481 9503 9459
19064 8 tri 9440 9416 9411
19065 8 tri 9445 9415 9416
19066 8 tri 9430 9440 9411
19067 8 tri 9470 9445 9440
19068 8 tri 9507 9520 9476
19069 8 tri 9541 9503 9481
19070 8 tri 9413 9446 9459
19071 8 tri 9415 9445 9446
19072 8 tri 9476 9481 9446
19073 8 tri 9476 9520 9481
19074 8 tri 9520 9573 9541
19075 8 tri 9607 5421 9573
19076 8 tri 5455 9584 9573
19077 8 tri 5489 9594 9584
19078 8 tri 9481 9520 9541
19079 8 tri 9502 9470 9462
19080 8 tri 9521 9569 9557
19081 8 tri 9607 9573 9557
19082 8 tri 9607 9569 5378
19083 8 tri 9607 9557 9569
19084 8 tri 9520 9507 9557
19085 8 tri 9476 9470 9507
19086 8 tri 9470 9521 9507
19087 8 tri 9548 9569 9521
19088 8 tri 9521 9502 9548
19089 8 tri 9462 3743 3776
19090 8 tri 3817 9502 3776
19091 8 tri 9521 9470 9502
19092 8 tri 9502 3817 9548
19093 8 tri 9603 9569 9548
19094 8 tri 9569 9603 5337
19095 8 tri 5337 9603 3915
19096 8 tri 3915 9603 3866
19097 8 tri 5378 9569 5337
19098 9 tri 9946 9950 9917
19099 9 tri 9673 9629 9679
19100 9 tri 10715 10680 10665
19101 9 tri 9886 9913 9928
19102 9 tri 10644 10681 10648
19103 9 tri 9890 9933 9909
19104 9 tri 9810 9840 9854
19105 9 tri 9753 8414 8415
19106 9 tri 9689 9637 9659
19107 9 tri 9809 9791 9822
19108 9 tri 9807 9774 9769
19109 9 tri 9979 9940 9943
19110 9 tri 9898 9858 9891
19111 9 tri 10073 10032 10063
19112 9 tri 9745 9735 9777
19113 9 tri 10120 10101 10083
19114 9 tri 9656 9616 9669
19115 9 tri 9686 9657 9617
19116 9 tri 9872 9829 9855
19117 9 tri 9756 9789 9752
19118 9 tri 9927 3976 3975
19119 9 tri 9749 9725 9697
19120 9 tri 9914 9956 9924
19121 9 tri 9673 9715 9697
19122 9 tri 9820 9778 9795
19123 9 tri 9724 9772 9730
19124 9 tri 10044 10062 10052
19125 9 tri 10200 10203 10220
19126 9 tri 6875 10778 10773
19127 9 tri 10575 10589 10606
19128 9 tri 10568 10612 10573
19129 9 tri 10752 6842 10741
19130 9 tri 10058 10020 10034
19131 9 tri 10599 10575 10606
19132 9 tri 10473 10508 10493
19133 9 tri 9855 9871 9896
19134 9 tri 10530 10535 10571
19135 9 tri 10070 10061 10054
19136 9 tri 10483 10518 10505
19137 9 tri 10727 10701 10681
19138 9 tri 10576 10547 10533
19139 9 tri 9901 9875 8419
19140 9 tri 9869 9833 9838
19141 9 tri 8429 8430 10089
19142 9 tri 10219 10238 10225
19143 9 tri 9902 9898 9936
19144 9 tri 10088 10065 10081
19145 9 tri 10125 10082 10095
19146 9 tri 10323 10286 10294
19147 9 tri 9771 9721 9741
19148 9 tri 9845 8417 8418
19149 9 tri 9957 9972 9949
19150 9 tri 10086 10059 10074
19151 9 tri 9793 9745 9777
19152 9 tri 9816 9856 9828
19153 9 tri 9748 9787 9794
19154 9 tri 10471 10456 10426
19155 9 tri 10751 10701 10727
19156 9 tri 9890 9924 9933
19157 9 tri 9886 9854 9840
19158 9 tri 9928 9941 9899
19159 9 tri 9941 9985 9956
19160 9 tri 9609 9655 9660
19161 9 tri 9816 9810 9854
19162 9 tri 9635 9638 2415
19163 9 tri 9727 9685 9683
19164 9 tri 2412 2411 9644
19165 9 tri 9635 9609 9660
19166 9 tri 9709 9699 9745
19167 9 tri 9644 9655 2412
19168 9 tri 2409 9639 2410
19169 9 tri 9703 9743 9748
19170 9 tri 2418 9629 9648
19171 9 tri 2411 2410 9642
19172 9 tri 2415 9638 2416
19173 9 tri 9731 9684 9708
19174 9 tri 9843 9849 9815
19175 9 tri 9678 9630 9671
19176 9 tri 9719 9682 9690
19177 9 tri 9672 9622 9619
19178 9 tri 9789 3970 3969
19179 9 tri 9909 9939 9900
19180 9 tri 9717 9702 9746
19181 9 tri 9937 9912 9897
19182 9 tri 9927 9954 3976
19183 9 tri 10146 10147 10129
19184 9 tri 10275 10255 10291
19185 9 tri 10091 10092 10115
19186 9 tri 10101 10078 10056
19187 9 tri 9716 9738 9766
19188 9 tri 9905 9874 9895
19189 9 tri 9839 9802 9831
19190 9 tri 9964 9973 9986
19191 9 tri 9865 9874 9839
19192 9 tri 9938 9969 9965
19193 9 tri 9788 9802 9762
19194 9 tri 10034 10003 10007
19195 9 tri 9868 9885 9844
19196 9 tri 10138 10096 10126
19197 9 tri 10092 10109 10115
19198 9 tri 10132 10110 10145
19199 9 tri 10006 9991 10035
19200 9 tri 10564 10525 10537
19201 9 tri 10596 10614 10567
19202 9 tri 10744 6851 6852
19203 9 tri 10073 10097 10122
19204 9 tri 10499 10488 10463
19205 9 tri 10642 10646 10600
19206 9 tri 10387 10360 10359
19207 9 tri 10332 10298 10339
19208 9 tri 9969 9962 10006
19209 9 tri 10454 10422 10417
19210 9 tri 10661 10630 10616
19211 9 tri 10506 10474 10517
19212 9 tri 10136 10127 10112
19213 9 tri 10179 10203 10200
19214 9 tri 10233 10222 10194
19215 9 tri 10234 10246 10259
19216 9 tri 10279 10246 10275
19217 9 tri 10340 10361 10364
19218 9 tri 10578 10568 10543
19219 9 tri 10670 10661 10709
19220 9 tri 10468 10491 4005
19221 9 tri 10693 10651 10657
19222 9 tri 10715 10731 10695
19223 9 tri 6872 10731 10769
19224 9 tri 6863 6864 10770
19225 9 tri 10612 10654 10656
19226 9 tri 10656 10616 10612
19227 9 tri 10534 10493 10508
19228 9 tri 10633 10674 10632
19229 9 tri 10355 10371 10329
19230 9 tri 10516 10542 10503
19231 9 tri 10761 6847 6848
19232 9 tri 6845 10763 10774
19233 9 tri 10686 10684 10721
19234 9 tri 10617 10648 10627
19235 9 tri 10621 10570 10603
19236 9 tri 10617 10608 10644
19237 9 tri 10503 10461 10476
19238 9 tri 10378 10385 10363
19239 9 tri 10145 10113 10137
19240 9 tri 10416 10407 10371
19241 9 tri 10570 10621 10593
19242 9 tri 10460 10502 10484
19243 9 tri 10143 10150 10157
19244 9 tri 10294 10297 10320
19245 9 tri 10314 10311 10342
19246 9 tri 10433 10476 10461
19247 9 tri 10358 10345 10372
19248 9 tri 10370 10347 10366
19249 9 tri 10701 10719 10672
19250 9 tri 10327 10347 10348
19251 9 tri 10189 10208 10191
19252 9 tri 10335 10315 10338
19253 9 tri 10282 10267 10289
19254 9 tri 10283 8441 10302
19255 9 tri 10283 10264 8440
19256 9 tri 10561 10526 10549
19257 9 tri 8454 8455 10549
19258 9 tri 10507 10547 10528
19259 9 tri 10528 10489 10507
19260 9 tri 10464 10446 10478
19261 9 tri 10780 6834 6835
19262 9 tri 9754 9753 9791
19263 9 tri 9620 9612 2397
19264 9 tri 9620 9637 9668
19265 9 tri 9701 9661 9710
19266 9 tri 9771 9799 9759
19267 9 tri 9812 9784 9809
19268 9 tri 9754 9713 9753
19269 9 tri 9784 9754 9791
19270 9 tri 9713 9670 8413
19271 9 tri 9741 9689 9707
19272 9 tri 9721 9668 9689
19273 9 tri 9670 9713 9707
19274 9 tri 9659 9615 9670
19275 9 tri 8415 9791 9753
19276 9 tri 10151 10141 10128
19277 9 tri 8424 9982 8423
19278 9 tri 10046 10061 10065
19279 9 tri 8427 10029 8426
19280 9 tri 8431 8432 10128
19281 9 tri 10081 10061 10070
19282 9 tri 10175 10186 10201
19283 9 tri 9997 9978 9971
19284 9 tri 10029 10018 8426
19285 9 tri 10130 10141 10150
19286 9 tri 10191 10208 10215
19287 9 tri 9999 10018 10005
19288 9 tri 8419 9875 8418
19289 9 tri 10014 9990 10010
19290 9 tri 9949 9923 9932
19291 9 tri 9970 9971 9948
19292 9 tri 9893 9891 9864
19293 9 tri 9935 9910 9919
19294 9 tri 9833 9830 9792
19295 9 tri 9901 8420 9919
19296 9 tri 9870 9845 9875
19297 9 tri 9791 8415 8416
19298 9 tri 9901 9910 9887
19299 9 tri 9838 9799 9812
19300 9 tri 9759 9710 9721
19301 9 tri 9906 9894 9879
19302 9 tri 9859 9870 9887
19303 9 tri 9898 9902 9861
19304 9 tri 9747 9710 9759
19305 9 tri 9674 9663 9711
19306 9 tri 9757 9747 9792
19307 9 tri 9711 9757 9723
19308 9 tri 9891 9917 9925
19309 9 tri 9826 9785 9823
19310 9 tri 9864 9830 9862
19311 9 tri 9792 9830 9797
19312 9 tri 9792 9799 9833
19313 9 tri 9823 9807 9858
19314 9 tri 9797 9830 9836
19315 9 tri 9869 9862 9833
19316 9 tri 9893 9917 9891
19317 9 tri 9948 9946 9918
19318 9 tri 9917 9918 9946
19319 9 tri 10026 9997 10014
19320 9 tri 10017 10036 10011
19321 9 tri 10084 10094 10113
19322 9 tri 10235 10195 10216
19323 9 tri 10104 10135 10121
19324 9 tri 10236 10215 10208
19325 9 tri 9988 10017 10011
19326 9 tri 10043 10023 10060
19327 9 tri 10104 10100 10123
19328 9 tri 10059 10076 10050
19329 9 tri 9936 9943 9902
19330 9 tri 10108 10082 10125
19331 9 tri 10013 10011 10049
19332 9 tri 10036 10049 10011
19333 9 tri 10064 10094 10084
19334 9 tri 10121 10135 10154
19335 9 tri 10193 10177 10149
19336 9 tri 10177 10161 10131
19337 9 tri 10105 10122 10149
19338 9 tri 10269 10224 10244
19339 9 tri 10033 9996 10032
19340 9 tri 9985 9941 9967
19341 9 tri 10032 9996 9985
19342 9 tri 10009 9981 9979
19343 9 tri 9890 9853 9889
19344 9 tri 9703 9748 9708
19345 9 tri 9793 9821 9829
19346 9 tri 9826 9861 9871
19347 9 tri 9829 9872 9840
19348 9 tri 9855 9896 9872
19349 9 tri 9650 9694 9698
19350 9 tri 9742 9739 9785
19351 9 tri 9807 9797 9836
19352 9 tri 9660 9703 9708
19353 9 tri 9679 9629 9640
19354 9 tri 9851 9853 9819
19355 9 tri 9819 9786 9794
19356 9 tri 9644 9693 9655
19357 9 tri 9731 9786 9765
19358 9 tri 9731 9765 9724
19359 9 tri 9774 9739 9732
19360 9 tri 9683 9634 9677
19361 9 tri 9621 9626 9662
19362 9 tri 9642 9639 9685
19363 9 tri 9642 2410 9639
19364 9 tri 9699 9696 9735
19365 9 tri 9661 9701 9651
19366 9 tri 9723 9674 9711
19367 9 tri 9694 9732 9739
19368 9 tri 9663 9674 9631
19369 9 tri 2409 9634 9639
19370 9 tri 9654 9699 9626
19371 9 tri 2418 2417 9629
19372 9 tri 9617 2423 2422
19373 9 tri 9656 2421 9616
19374 9 tri 9688 9684 9731
19375 9 tri 9697 9725 9669
19376 9 tri 9772 9808 9767
19377 9 tri 9801 9820 9842
19378 9 tri 9625 2427 2426
19379 9 tri 9678 9627 9630
19380 9 tri 9740 9755 9779
19381 9 tri 9608 2425 2424
19382 9 tri 2426 9610 9625
19383 9 tri 9736 9760 9780
19384 9 tri 9681 9726 9671
19385 9 tri 9726 9768 9760
19386 9 tri 9627 9678 9690
19387 9 tri 9746 9788 9762
19388 9 tri 9641 9692 9665
19389 9 tri 9877 9834 9852
19390 9 tri 9712 9667 9700
19391 9 tri 9652 9618 9665
19392 9 tri 2432 2431 9632
19393 9 tri 9652 2434 9618
19394 9 tri 2435 2434 9652
19395 9 tri 9658 9610 2425
19396 9 tri 9633 9623 2442
19397 9 tri 3966 9623 9680
19398 9 tri 3967 3966 9680
19399 9 tri 9789 9818 3970
19400 9 tri 9676 9633 9675
19401 9 tri 9664 9695 9647
19402 9 tri 9718 9752 3968
19403 9 tri 9653 2438 2437
19404 9 tri 9664 9614 9653
19405 9 tri 9762 9717 9746
19406 9 tri 9734 9675 9695
19407 9 tri 9672 9728 9702
19408 9 tri 9806 9763 9790
19409 9 tri 9905 9888 9874
19410 9 tri 9848 9814 9839
19411 9 tri 9846 3971 9818
19412 9 tri 9866 9874 9888
19413 9 tri 9953 9934 9930
19414 9 tri 9927 3974 9903
19415 9 tri 9975 9994 9973
19416 9 tri 9903 9888 9911
19417 9 tri 9927 3975 3974
19418 9 tri 10103 10116 3985
19419 9 tri 9974 9993 9998
19420 9 tri 9954 9964 9977
19421 9 tri 10044 10052 10031
19422 9 tri 10099 10093 10111
19423 9 tri 10127 10146 10129
19424 9 tri 10184 10200 10205
19425 9 tri 3987 10134 10155
19426 9 tri 10136 10133 10158
19427 9 tri 10206 10203 10183
19428 9 tri 10069 10090 10058
19429 9 tri 10158 10188 10183
19430 9 tri 10118 10114 10152
19431 9 tri 10038 10080 10045
19432 9 tri 10102 10090 10069
19433 9 tri 10091 10115 10112
19434 9 tri 10040 10020 10058
19435 9 tri 10007 9976 9965
19436 9 tri 10102 10124 10090
19437 9 tri 10162 10188 10158
19438 9 tri 9993 9959 9984
19439 9 tri 9781 9825 9811
19440 9 tri 9850 9857 9817
19441 9 tri 9883 9915 9895
19442 9 tri 10020 10022 9993
19443 9 tri 9926 9915 9892
19444 9 tri 9959 9942 9926
19445 9 tri 9952 9959 9926
19446 9 tri 9937 9952 9912
19447 9 tri 9897 9877 9852
19448 9 tri 9965 9976 9937
19449 9 tri 9984 9959 9952
19450 9 tri 9938 9965 9920
19451 9 tri 10007 10045 10034
19452 9 tri 9884 9882 9922
19453 9 tri 9922 9962 9931
19454 9 tri 9804 9800 9768
19455 9 tri 9885 9920 9897
19456 9 tri 9843 9803 9827
19457 9 tri 9782 9737 9750
19458 9 tri 9860 9900 9881
19459 9 tri 9750 9725 9778
19460 9 tri 9767 9808 9795
19461 9 tri 9813 9847 9808
19462 9 tri 9881 9907 9867
19463 9 tri 9815 9804 9761
19464 9 tri 9880 9916 9882
19465 9 tri 9931 9904 9884
19466 9 tri 9956 9963 9924
19467 9 tri 10087 10039 10068
19468 9 tri 9922 9958 9962
19469 9 tri 9969 9938 9931
19470 9 tri 9933 9963 9966
19471 9 tri 10152 10114 10138
19472 9 tri 10006 10035 10053
19473 9 tri 10019 9991 9983
19474 9 tri 10080 10038 10077
19475 9 tri 10035 10078 10053
19476 9 tri 9922 9916 9958
19477 9 tri 10056 10012 10047
19478 9 tri 10012 10001 10047
19479 9 tri 10131 10087 10105
19480 9 tri 10210 10168 10185
19481 9 tri 10198 10153 10169
19482 9 tri 10257 10261 10298
19483 9 tri 10204 10194 10174
19484 9 tri 10180 10207 10232
19485 9 tri 10265 10291 10255
19486 9 tri 10310 10349 10336
19487 9 tri 10421 10411 10450
19488 9 tri 10211 10261 10227
19489 9 tri 10209 10165 10181
19490 9 tri 10245 10257 10290
19491 9 tri 10461 10451 10416
19492 9 tri 10362 10376 10400
19493 9 tri 10273 10313 10300
19494 9 tri 10445 10430 10400
19495 9 tri 10376 10332 10339
19496 9 tri 10553 10543 10517
19497 9 tri 10360 10333 10330
19498 9 tri 10379 10336 10349
19499 9 tri 10454 10504 10470
19500 9 tri 10474 10430 10445
19501 9 tri 10291 10306 10275
19502 9 tri 10421 10376 10411
19503 9 tri 10532 10490 10506
19504 9 tri 10417 10390 10430
19505 9 tri 10367 10359 10331
19506 9 tri 10183 10188 10206
19507 9 tri 10387 10402 10419
19508 9 tri 10330 10333 10307
19509 9 tri 10387 10367 10402
19510 9 tri 10538 10521 10563
19511 9 tri 10312 10321 10292
19512 9 tri 10220 10203 10226
19513 9 tri 10413 4002 4001
19514 9 tri 10312 10292 10287
19515 9 tri 10270 10247 10259
19516 9 tri 10240 10260 10242
19517 9 tri 10194 10204 10233
19518 9 tri 10233 10265 10255
19519 9 tri 10279 10307 10287
19520 9 tri 10287 10270 10259
19521 9 tri 10234 10217 10246
19522 9 tri 10204 10174 10197
19523 9 tri 10247 10234 10259
19524 9 tri 10222 10255 10246
19525 9 tri 10159 10136 10158
19526 9 tri 10162 10190 10188
19527 9 tri 10226 10206 10234
19528 9 tri 10188 10190 10217
19529 9 tri 10270 10260 10247
19530 9 tri 10192 3990 3989
19531 9 tri 10226 10240 10220
19532 9 tri 10304 10321 10326
19533 9 tri 10341 10365 10352
19534 9 tri 10263 10281 10266
19535 9 tri 10230 10223 10242
19536 9 tri 10260 10270 10280
19537 9 tri 10176 10192 3989
19538 9 tri 10240 10242 10220
19539 9 tri 10249 10266 3993
19540 9 tri 10266 3994 3993
19541 9 tri 10280 10270 10292
19542 9 tri 10343 10354 10341
19543 9 tri 10468 10449 10477
19544 9 tri 10299 10301 10318
19545 9 tri 10285 3994 10266
19546 9 tri 3998 3997 10334
19547 9 tri 10343 10326 10321
19548 9 tri 10281 10301 10299
19549 9 tri 10374 10365 10383
19550 9 tri 10352 3998 10334
19551 9 tri 4004 4003 10448
19552 9 tri 4001 4000 10395
19553 9 tri 10398 10382 10403
19554 9 tri 10498 10472 10455
19555 9 tri 10590 10567 10614
19556 9 tri 10637 10639 10676
19557 9 tri 10743 10739 10694
19558 9 tri 10614 10631 10590
19559 9 tri 10670 10678 10634
19560 9 tri 10510 10492 10521
19561 9 tri 10695 10731 10758
19562 9 tri 10589 10560 10551
19563 9 tri 4014 4013 10723
19564 9 tri 10479 10492 10510
19565 9 tri 10586 10575 10599
19566 9 tri 10565 10598 4009
19567 9 tri 10679 10660 10699
19568 9 tri 10685 10717 10728
19569 9 tri 10695 10758 10717
19570 9 tri 10699 10660 10676
19571 9 tri 10750 10765 6877
19572 9 tri 10757 10762 6869
19573 9 tri 10656 10702 10661
19574 9 tri 10764 6870 6871
19575 9 tri 10746 6868 10762
19576 9 tri 10762 6868 6869
19577 9 tri 10746 10754 6867
19578 9 tri 10743 6865 10739
19579 9 tri 10754 10739 6866
19580 9 tri 6865 6866 10739
19581 9 tri 10705 10743 10694
19582 9 tri 10770 6864 10743
19583 9 tri 10532 10568 10573
19584 9 tri 10578 10619 10602
19585 9 tri 10517 10530 10553
19586 9 tri 10770 10743 10705
19587 9 tri 10734 10760 6861
19588 9 tri 10696 10738 10755
19589 9 tri 10578 10553 10594
19590 9 tri 10569 10535 10534
19591 9 tri 10594 10620 10641
19592 9 tri 10548 10574 10534
19593 9 tri 10628 10609 10659
19594 9 tri 10649 10605 10651
19595 9 tri 10609 10658 10659
19596 9 tri 10700 10697 10742
19597 9 tri 10646 10671 10629
19598 9 tri 10566 10588 10548
19599 9 tri 10749 10697 10708
19600 9 tri 10703 10693 10657
19601 9 tri 6850 10747 10732
19602 9 tri 10730 10737 10698
19603 9 tri 10725 10774 10720
19604 9 tri 10752 10741 10691
19605 9 tri 10672 10647 10627
19606 9 tri 10707 10662 10691
19607 9 tri 10625 10667 10655
19608 9 tri 10711 10690 10653
19609 9 tri 10707 10691 10741
19610 9 tri 10672 10648 10701
19611 9 tri 6843 6844 10767
19612 9 tri 10767 10725 10707
19613 9 tri 10763 10748 10712
19614 9 tri 10662 10677 10633
19615 9 tri 10632 10667 10625
19616 9 tri 10767 10741 6843
19617 9 tri 10708 10671 10704
19618 9 tri 10735 10689 10706
19619 9 tri 10735 6849 10732
19620 9 tri 10588 10566 10609
19621 9 tri 10655 10610 10625
19622 9 tri 10689 10688 10642
19623 9 tri 10747 6851 10744
19624 9 tri 10525 10564 10559
19625 9 tri 10712 10667 10674
19626 9 tri 10597 10610 10642
19627 9 tri 10582 10625 10610
19628 9 tri 10691 10662 10647
19629 9 tri 10555 10556 10519
19630 9 tri 10593 10595 10555
19631 9 tri 10582 10537 10556
19632 9 tri 10610 10597 10564
19633 9 tri 10371 10377 10337
19634 9 tri 10582 10556 10595
19635 9 tri 10494 10461 10503
19636 9 tri 10593 10555 10570
19637 9 tri 10519 10537 10502
19638 9 tri 10460 10439 10412
19639 9 tri 10221 10211 10177
19640 9 tri 10555 10519 10529
19641 9 tri 10514 10484 10525
19642 9 tri 10156 10145 10178
19643 9 tri 10327 10297 10303
19644 9 tri 10235 10251 10277
19645 9 tri 10327 10303 10328
19646 9 tri 10389 10409 10375
19647 9 tri 10429 10389 10401
19648 9 tri 10497 10533 10507
19649 9 tri 10447 10409 10429
19650 9 tri 10487 10467 10458
19651 9 tri 10370 10348 10347
19652 9 tri 10262 10272 10294
19653 9 tri 10253 10267 10243
19654 9 tri 10372 10345 10348
19655 9 tri 10323 10311 10286
19656 9 tri 10272 10241 10250
19657 9 tri 10182 10167 10154
19658 9 tri 10408 10415 10394
19659 9 tri 10394 10397 10370
19660 9 tri 10434 10458 10441
19661 9 tri 10441 10467 10446
19662 9 tri 10415 10434 10441
19663 9 tri 10511 10487 10481
19664 9 tri 10475 10465 10453
19665 9 tri 10476 10447 10489
19666 9 tri 10467 10487 10497
19667 9 tri 10511 10520 10487
19668 9 tri 10478 10467 10497
19669 9 tri 10557 10576 10533
19670 9 tri 10528 10516 10489
19671 9 tri 10690 10644 10653
19672 9 tri 10572 10547 10576
19673 9 tri 10520 10533 10497
19674 9 tri 10547 10507 10533
19675 9 tri 10615 10650 10622
19676 9 tri 10624 10653 10608
19677 9 tri 10408 10434 10415
19678 9 tri 10444 10427 8449
19679 9 tri 10368 10350 8445
19680 9 tri 10386 8446 8447
19681 9 tri 10475 10453 10466
19682 9 tri 8444 10350 10338
19683 9 tri 10278 10293 10289
19684 9 tri 10369 10353 10350
19685 9 tri 10309 10328 10303
19686 9 tri 10366 10363 10385
19687 9 tri 10347 10344 10363
19688 9 tri 10238 10253 10243
19689 9 tri 10276 10297 10272
19690 9 tri 10225 10208 10201
19691 9 tri 10225 10236 10208
19692 9 tri 10238 10243 10225
19693 9 tri 10250 10276 10272
19694 9 tri 10293 10278 10271
19695 9 tri 10309 10324 10328
19696 9 tri 10283 10293 10271
19697 9 tri 10335 10338 10350
19698 9 tri 8443 10322 8442
19699 9 tri 10324 10335 10344
19700 9 tri 8440 10264 8439
19701 9 tri 10248 8438 8439
19702 9 tri 10414 10435 10420
19703 9 tri 10443 10420 10435
19704 9 tri 10509 10500 10485
19705 9 tri 8447 8448 10406
19706 9 tri 10427 10444 10435
19707 9 tri 8455 8456 10580
19708 9 tri 8454 10526 8453
19709 9 tri 10475 10485 10500
19710 9 tri 10558 10561 10585
19711 9 tri 10545 10520 10511
19712 9 tri 10487 10458 10481
19713 9 tri 10652 10669 10624
19714 9 tri 10724 10775 10726
19715 9 tri 10580 10549 8455
19716 9 tri 10558 10562 10531
19717 9 tri 9611 9659 9637
19718 9 tri 2396 9637 9620
19719 9 tri 9612 2398 2397
19720 9 tri 2400 9613 9631
19721 9 tri 9612 9651 2398
19722 9 tri 9747 9701 9710
19723 9 tri 9651 9613 2399
19724 9 tri 9661 9668 9710
19725 9 tri 9661 9612 9620
19726 9 tri 9661 9620 9668
19727 9 tri 2397 2396 9620
19728 9 tri 9707 9689 9659
19729 9 tri 9668 9637 9689
19730 9 tri 9707 9659 9670
19731 9 tri 9637 2395 9611
19732 9 tri 9637 2396 2395
19733 9 tri 2394 9611 2395
19734 9 tri 2394 9615 9611
19735 9 tri 9615 2394 2393
19736 9 tri 8412 9615 2393
19737 9 tri 9659 9611 9615
19738 9 tri 8413 8414 9713
19739 9 tri 8412 9670 9615
19740 9 tri 9753 9713 8414
19741 9 tri 9845 8418 9875
19742 9 tri 8416 8417 9822
19743 9 tri 9809 9822 9837
19744 9 tri 9791 8416 9822
19745 9 tri 9812 9809 9837
19746 9 tri 9784 9791 9809
19747 9 tri 9754 9707 9713
19748 9 tri 9741 9721 9689
19749 9 tri 9771 9759 9721
19750 9 tri 9710 9668 9721
19751 9 tri 9754 9741 9707
19752 9 tri 9754 9784 9741
19753 9 tri 9792 9759 9799
19754 9 tri 9792 9747 9759
19755 9 tri 9838 9833 9799
19756 9 tri 9862 9830 9833
19757 9 tri 9784 9771 9741
19758 9 tri 9784 9812 9771
19759 9 tri 9859 9838 9837
19760 9 tri 9799 9771 9812
19761 9 tri 9870 9859 9837
19762 9 tri 9906 9910 9932
19763 9 tri 9837 9838 9812
19764 9 tri 9859 9869 9838
19765 9 tri 9887 9879 9859
19766 9 tri 9894 9862 9869
19767 9 tri 9879 9894 9869
19768 9 tri 9918 9917 9893
19769 9 tri 9923 9918 9894
19770 9 tri 9923 9948 9918
19771 9 tri 9859 9879 9869
19772 9 tri 9887 9910 9906
19773 9 tri 9894 9906 9923
19774 9 tri 9879 9887 9906
19775 9 tri 9957 9932 9935
19776 9 tri 9923 9906 9932
19777 9 tri 9822 9845 9837
19778 9 tri 9875 9887 9870
19779 9 tri 8421 9919 8420
19780 9 tri 8421 9945 9919
19781 9 tri 9837 9845 9870
19782 9 tri 9822 8417 9845
19783 9 tri 9901 8419 8420
19784 9 tri 9910 9901 9919
19785 9 tri 9887 9875 9901
19786 9 tri 8422 9945 8421
19787 9 tri 8412 8413 9670
19788 9 tri 9999 8424 8425
19789 9 tri 9999 9982 8424
19790 9 tri 8427 10054 10029
19791 9 tri 10107 8431 10128
19792 9 tri 10070 10054 8428
19793 9 tri 10054 10041 10029
19794 9 tri 10098 10107 10119
19795 9 tri 10089 8430 10107
19796 9 tri 10098 10081 10089
19797 9 tri 10088 10074 10065
19798 9 tri 10088 10098 10106
19799 9 tri 10089 10107 10098
19800 9 tri 10130 10150 10143
19801 9 tri 10106 10098 10119
19802 9 tri 8430 8431 10107
19803 9 tri 8435 10173 8434
19804 9 tri 10119 10107 10128
19805 9 tri 10173 10151 8434
19806 9 tri 10128 8432 8433
19807 9 tri 10150 10151 10163
19808 9 tri 10157 10175 10189
19809 9 tri 10173 8435 10187
19810 9 tri 10175 10163 10186
19811 9 tri 10173 10187 10186
19812 9 tri 10173 10186 10163
19813 9 tri 10187 10202 10186
19814 9 tri 10128 10141 10119
19815 9 tri 10128 8433 10151
19816 9 tri 8434 10151 8433
19817 9 tri 10173 10163 10151
19818 9 tri 10175 10150 10163
19819 9 tri 10141 10151 10150
19820 9 tri 10148 10143 10157
19821 9 tri 10130 10117 10106
19822 9 tri 10208 10189 10201
19823 9 tri 10157 10150 10175
19824 9 tri 10157 10189 10172
19825 9 tri 10175 10201 10189
19826 9 tri 10148 10172 10171
19827 9 tri 10172 10189 10191
19828 9 tri 10172 10148 10157
19829 9 tri 10148 10123 10143
19830 9 tri 10171 10154 10135
19831 9 tri 10135 10123 10148
19832 9 tri 10059 10037 10055
19833 9 tri 10117 10143 10123
19834 9 tri 10100 10074 10088
19835 9 tri 10106 10119 10130
19836 9 tri 10117 10130 10143
19837 9 tri 10119 10141 10130
19838 9 tri 10055 10074 10059
19839 9 tri 10100 10117 10123
19840 9 tri 10098 10088 10081
19841 9 tri 10106 10117 10100
19842 9 tri 10104 10086 10100
19843 9 tri 10076 10064 10050
19844 9 tri 10074 10100 10086
19845 9 tri 10088 10106 10100
19846 9 tri 10014 10028 10037
19847 9 tri 10065 10074 10055
19848 9 tri 10026 10014 10037
19849 9 tri 9997 9971 9990
19850 9 tri 10037 10028 10055
19851 9 tri 10014 10010 10028
19852 9 tri 9989 9972 9987
19853 9 tri 10028 10046 10055
19854 9 tri 10028 10010 10025
19855 9 tri 10046 10065 10055
19856 9 tri 10061 10081 10065
19857 9 tri 10046 10041 10061
19858 9 tri 10046 10028 10025
19859 9 tri 8429 10070 8428
19860 9 tri 10061 10041 10054
19861 9 tri 10089 10070 8429
19862 9 tri 10089 10081 10070
19863 9 tri 10025 10018 10029
19864 9 tri 10018 8425 8426
19865 9 tri 8428 10054 8427
19866 9 tri 10041 10025 10029
19867 9 tri 10005 9989 9987
19868 9 tri 10046 10025 10041
19869 9 tri 10005 9987 9999
19870 9 tri 10025 10005 10018
19871 9 tri 9972 9982 9987
19872 9 tri 9961 9982 9972
19873 9 tri 9982 9999 9987
19874 9 tri 8425 10018 9999
19875 9 tri 9957 9945 9961
19876 9 tri 8422 8423 9945
19877 9 tri 9961 8423 9982
19878 9 tri 9910 9935 9932
19879 9 tri 9919 9945 9935
19880 9 tri 9957 9961 9972
19881 9 tri 9945 8423 9961
19882 9 tri 9989 9970 9972
19883 9 tri 9948 9923 9949
19884 9 tri 9932 9957 9949
19885 9 tri 9935 9945 9957
19886 9 tri 10010 10005 10025
19887 9 tri 10010 9989 10005
19888 9 tri 9990 9971 9970
19889 9 tri 9978 9960 9950
19890 9 tri 10010 9990 9989
19891 9 tri 10014 9997 9990
19892 9 tri 9970 9948 9949
19893 9 tri 9971 9946 9948
19894 9 tri 9972 9970 9949
19895 9 tri 9989 9990 9970
19896 9 tri 9797 9757 9792
19897 9 tri 9711 9701 9747
19898 9 tri 9769 9757 9797
19899 9 tri 9711 9747 9757
19900 9 tri 9807 9769 9797
19901 9 tri 9723 9757 9769
19902 9 tri 9861 9823 9858
19903 9 tri 9785 9774 9823
19904 9 tri 9783 9742 9785
19905 9 tri 9732 9769 9774
19906 9 tri 9858 9807 9836
19907 9 tri 9823 9774 9807
19908 9 tri 9699 9654 9696
19909 9 tri 9636 9687 9645
19910 9 tri 9840 9798 9829
19911 9 tri 9709 9662 9699
19912 9 tri 9798 9758 9793
19913 9 tri 9735 9742 9783
19914 9 tri 9826 9783 9785
19915 9 tri 9777 9735 9783
19916 9 tri 9829 9821 9855
19917 9 tri 9777 9783 9821
19918 9 tri 9821 9826 9871
19919 9 tri 9821 9783 9826
19920 9 tri 9871 9861 9902
19921 9 tri 9826 9823 9861
19922 9 tri 9908 9871 9902
19923 9 tri 9861 9858 9898
19924 9 tri 9908 9896 9871
19925 9 tri 9855 9821 9871
19926 9 tri 9940 9896 9908
19927 9 tri 9913 9872 9896
19928 9 tri 9955 9940 9981
19929 9 tri 9913 9896 9940
19930 9 tri 9943 9908 9902
19931 9 tri 9943 9940 9908
19932 9 tri 9960 9936 9925
19933 9 tri 9960 9980 9936
19934 9 tri 9950 9960 9925
19935 9 tri 9988 10011 9980
19936 9 tri 9836 9864 9858
19937 9 tri 9864 9862 9893
19938 9 tri 9925 9898 9891
19939 9 tri 9925 9936 9898
19940 9 tri 9858 9864 9891
19941 9 tri 9836 9830 9864
19942 9 tri 9894 9893 9862
19943 9 tri 9894 9918 9893
19944 9 tri 9917 9950 9925
19945 9 tri 9946 9971 9978
19946 9 tri 9946 9978 9950
19947 9 tri 9997 10026 10017
19948 9 tri 10050 10026 10037
19949 9 tri 10050 10036 10017
19950 9 tri 9978 9988 9960
19951 9 tri 9978 9997 9988
19952 9 tri 9997 10017 9988
19953 9 tri 10026 10050 10017
19954 9 tri 10036 10064 10049
19955 9 tri 10036 10050 10064
19956 9 tri 10076 10059 10086
19957 9 tri 10050 10037 10059
19958 9 tri 10104 10076 10086
19959 9 tri 10094 10064 10076
19960 9 tri 10135 10104 10123
19961 9 tri 10094 10076 10104
19962 9 tri 10137 10154 10167
19963 9 tri 10135 10148 10171
19964 9 tri 10191 10171 10172
19965 9 tri 10196 10215 10228
19966 9 tri 10137 10167 10145
19967 9 tri 10154 10171 10182
19968 9 tri 10191 10196 10171
19969 9 tri 10199 10167 10182
19970 9 tri 10094 10121 10113
19971 9 tri 10094 10104 10121
19972 9 tri 10121 10137 10113
19973 9 tri 10121 10154 10137
19974 9 tri 10060 10042 10075
19975 9 tri 10049 10064 10084
19976 9 tri 10199 10178 10167
19977 9 tri 10110 10095 10075
19978 9 tri 10169 10153 10125
19979 9 tri 10145 10167 10178
19980 9 tri 10156 10132 10145
19981 9 tri 10110 10084 10113
19982 9 tri 10235 10277 10252
19983 9 tri 10122 10165 10149
19984 9 tri 10125 10095 10132
19985 9 tri 10082 10060 10095
19986 9 tri 10145 10110 10113
19987 9 tri 10132 10095 10110
19988 9 tri 9979 9980 10013
19989 9 tri 10075 10084 10110
19990 9 tri 10049 10042 10013
19991 9 tri 10049 10084 10075
19992 9 tri 10060 10075 10095
19993 9 tri 10042 10049 10075
19994 9 tri 9936 9980 9943
19995 9 tri 9960 9988 9980
19996 9 tri 10009 9979 10013
19997 9 tri 9980 10011 10013
19998 9 tri 9980 9979 9943
19999 9 tri 10013 10042 10009
20000 9 tri 10060 10023 10042
20001 9 tri 10023 10043 9995
20002 9 tri 9995 9955 9981
20003 9 tri 9940 9979 9981
20004 9 tri 9940 9955 9913
20005 9 tri 9995 10016 9967
20006 9 tri 9985 9967 10016
20007 9 tri 9941 9928 9967
20008 9 tri 9995 10043 10016
20009 9 tri 10060 10082 10043
20010 9 tri 9955 9995 9967
20011 9 tri 9981 10009 10023
20012 9 tri 9981 10023 9995
20013 9 tri 10009 10042 10023
20014 9 tri 10156 10169 10132
20015 9 tri 10153 10108 10125
20016 9 tri 10132 10169 10125
20017 9 tri 10198 10169 10212
20018 9 tri 10195 10212 10169
20019 9 tri 10252 10244 10212
20020 9 tri 10153 10142 10108
20021 9 tri 10153 10181 10142
20022 9 tri 10198 10181 10153
20023 9 tri 10165 10142 10181
20024 9 tri 10043 10063 10016
20025 9 tri 10043 10082 10063
20026 9 tri 10097 10108 10142
20027 9 tri 10063 10082 10108
20028 9 tri 10108 10097 10063
20029 9 tri 10033 10039 10000
20030 9 tri 10165 10122 10142
20031 9 tri 10073 10063 10097
20032 9 tri 10073 10122 10105
20033 9 tri 10097 10142 10122
20034 9 tri 10165 10193 10149
20035 9 tri 10168 10210 10170
20036 9 tri 10356 10357 10325
20037 9 tri 10221 10177 10193
20038 9 tri 10087 10047 10039
20039 9 tri 9966 9939 9933
20040 9 tri 10105 10068 10073
20041 9 tri 10105 10087 10068
20042 9 tri 9963 10000 9966
20043 9 tri 9996 10033 10000
20044 9 tri 10063 10032 10016
20045 9 tri 10073 10068 10033
20046 9 tri 10073 10033 10032
20047 9 tri 10068 10039 10033
20048 9 tri 9963 9956 9996
20049 9 tri 9924 9889 9914
20050 9 tri 10032 9985 10016
20051 9 tri 9996 9956 9985
20052 9 tri 9924 9963 9933
20053 9 tri 9996 10000 9963
20054 9 tri 10039 10001 10000
20055 9 tri 9968 9939 9966
20056 9 tri 9847 9890 9873
20057 9 tri 9933 9939 9909
20058 9 tri 9835 9847 9873
20059 9 tri 9878 9851 9828
20060 9 tri 9873 9890 9909
20061 9 tri 9853 9813 9819
20062 9 tri 9851 9819 9828
20063 9 tri 9786 9751 9794
20064 9 tri 9847 9853 9890
20065 9 tri 9847 9813 9853
20066 9 tri 9878 9889 9851
20067 9 tri 9924 9890 9889
20068 9 tri 9899 9914 9878
20069 9 tri 9941 9956 9914
20070 9 tri 9955 9928 9913
20071 9 tri 9941 9914 9899
20072 9 tri 9854 9886 9899
20073 9 tri 9955 9967 9928
20074 9 tri 9872 9886 9840
20075 9 tri 9899 9856 9854
20076 9 tri 9913 9886 9872
20077 9 tri 9928 9899 9886
20078 9 tri 9856 9878 9828
20079 9 tri 9889 9853 9851
20080 9 tri 9899 9878 9856
20081 9 tri 9914 9889 9878
20082 9 tri 9775 9810 9816
20083 9 tri 9854 9856 9816
20084 9 tri 9621 9677 9634
20085 9 tri 9793 9777 9821
20086 9 tri 9775 9770 9810
20087 9 tri 9798 9840 9810
20088 9 tri 9810 9770 9798
20089 9 tri 9729 9709 9758
20090 9 tri 9798 9793 9829
20091 9 tri 9758 9745 9793
20092 9 tri 9639 9634 9683
20093 9 tri 9758 9798 9770
20094 9 tri 9787 9748 9743
20095 9 tri 9733 9727 9775
20096 9 tri 9816 9787 9775
20097 9 tri 9693 9703 9655
20098 9 tri 9708 9748 9751
20099 9 tri 9743 9775 9787
20100 9 tri 9828 9787 9816
20101 9 tri 9794 9751 9748
20102 9 tri 9813 9786 9819
20103 9 tri 9638 9688 9640
20104 9 tri 9828 9794 9787
20105 9 tri 9828 9819 9794
20106 9 tri 9813 9765 9786
20107 9 tri 9813 9808 9772
20108 9 tri 9730 9772 9767
20109 9 tri 9765 9813 9772
20110 9 tri 9673 9730 9715
20111 9 tri 9679 9724 9730
20112 9 tri 9640 9688 9679
20113 9 tri 9765 9772 9724
20114 9 tri 9751 9731 9708
20115 9 tri 9751 9786 9731
20116 9 tri 9708 9684 9660
20117 9 tri 9731 9724 9688
20118 9 tri 2416 9638 9640
20119 9 tri 2415 2414 9635
20120 9 tri 9679 9688 9724
20121 9 tri 9638 9684 9688
20122 9 tri 9649 9616 2420
20123 9 tri 9629 2417 9640
20124 9 tri 9655 9609 2413
20125 9 tri 2417 2416 9640
20126 9 tri 9684 9635 9660
20127 9 tri 2414 2413 9609
20128 9 tri 9609 9635 2414
20129 9 tri 9684 9638 9635
20130 9 tri 9642 9685 9693
20131 9 tri 9644 2411 9642
20132 9 tri 9655 2413 2412
20133 9 tri 2408 9634 2409
20134 9 tri 2407 9626 9621
20135 9 tri 9770 9727 9729
20136 9 tri 9621 2408 2407
20137 9 tri 9729 9683 9677
20138 9 tri 9685 9639 9683
20139 9 tri 9642 9693 9644
20140 9 tri 9685 9733 9693
20141 9 tri 9655 9703 9660
20142 9 tri 9693 9743 9703
20143 9 tri 9743 9733 9775
20144 9 tri 9743 9693 9733
20145 9 tri 9775 9727 9770
20146 9 tri 9733 9685 9727
20147 9 tri 9770 9729 9758
20148 9 tri 9727 9683 9729
20149 9 tri 9758 9709 9745
20150 9 tri 9729 9677 9709
20151 9 tri 9699 9662 9626
20152 9 tri 9709 9677 9662
20153 9 tri 2406 9654 9626
20154 9 tri 9735 9745 9699
20155 9 tri 2404 9646 2405
20156 9 tri 9696 9742 9735
20157 9 tri 9646 9698 9696
20158 9 tri 9698 9742 9696
20159 9 tri 9650 2404 2403
20160 9 tri 9694 9645 9687
20161 9 tri 9785 9739 9774
20162 9 tri 9742 9698 9739
20163 9 tri 9663 9701 9711
20164 9 tri 9663 9613 9651
20165 9 tri 9769 9732 9723
20166 9 tri 9650 9698 9646
20167 9 tri 9661 9651 9612
20168 9 tri 9701 9663 9651
20169 9 tri 9732 9687 9723
20170 9 tri 9631 9613 9663
20171 9 tri 9636 9631 9674
20172 9 tri 9674 9723 9687
20173 9 tri 9732 9694 9687
20174 9 tri 9739 9698 9694
20175 9 tri 2402 9645 2403
20176 9 tri 2402 2401 9636
20177 9 tri 9687 9636 9674
20178 9 tri 2401 2400 9631
20179 9 tri 2402 9636 9645
20180 9 tri 2401 9631 9636
20181 9 tri 2398 9651 2399
20182 9 tri 9613 2400 2399
20183 9 tri 2403 9645 9650
20184 9 tri 9654 9646 9696
20185 9 tri 9654 2405 9646
20186 9 tri 2404 9650 9646
20187 9 tri 9645 9694 9650
20188 9 tri 2407 2406 9626
20189 9 tri 9677 9621 9662
20190 9 tri 9634 2408 9621
20191 9 tri 2406 2405 9654
20192 9 tri 2423 9657 9608
20193 9 tri 9704 9669 9725
20194 9 tri 2422 2421 9656
20195 9 tri 2419 2418 9648
20196 9 tri 9697 9648 9673
20197 9 tri 9649 2420 2419
20198 9 tri 9648 9649 2419
20199 9 tri 2420 9616 2421
20200 9 tri 9704 9725 9750
20201 9 tri 9704 9686 9656
20202 9 tri 9617 2422 9656
20203 9 tri 9649 9669 9616
20204 9 tri 9697 9715 9749
20205 9 tri 9629 9673 9648
20206 9 tri 9679 9730 9673
20207 9 tri 9649 9697 9669
20208 9 tri 9649 9648 9697
20209 9 tri 9749 9767 9795
20210 9 tri 9715 9730 9767
20211 9 tri 9749 9795 9778
20212 9 tri 9808 9847 9835
20213 9 tri 9801 9750 9778
20214 9 tri 9755 9740 9706
20215 9 tri 9820 9801 9778
20216 9 tri 9782 9755 9737
20217 9 tri 9737 9706 9686
20218 9 tri 9656 9669 9704
20219 9 tri 9767 9749 9715
20220 9 tri 9778 9725 9749
20221 9 tri 9750 9737 9704
20222 9 tri 9608 9658 2425
20223 9 tri 9801 9782 9750
20224 9 tri 9755 9706 9737
20225 9 tri 9827 9782 9801
20226 9 tri 9827 9803 9782
20227 9 tri 9740 9779 9761
20228 9 tri 9755 9782 9803
20229 9 tri 9867 9843 9827
20230 9 tri 9779 9755 9803
20231 9 tri 9740 9691 9706
20232 9 tri 9740 9761 9705
20233 9 tri 9740 9705 9691
20234 9 tri 9681 9671 9624
20235 9 tri 9705 9658 9691
20236 9 tri 9610 2426 2425
20237 9 tri 9691 9657 9706
20238 9 tri 9691 9658 9608
20239 9 tri 9737 9686 9704
20240 9 tri 9706 9657 9686
20241 9 tri 9686 9617 9656
20242 9 tri 9657 2423 9617
20243 9 tri 2423 9608 2424
20244 9 tri 9657 9691 9608
20245 9 tri 9705 9666 9658
20246 9 tri 9666 9681 9625
20247 9 tri 9658 9666 9610
20248 9 tri 9624 2428 2427
20249 9 tri 2427 9625 9624
20250 9 tri 9681 9624 9625
20251 9 tri 2429 9627 2430
20252 9 tri 2430 9627 9643
20253 9 tri 2428 9624 9630
20254 9 tri 9671 9630 9624
20255 9 tri 9671 9714 9678
20256 9 tri 9610 9666 9625
20257 9 tri 9815 9761 9779
20258 9 tri 9705 9720 9666
20259 9 tri 9720 9726 9681
20260 9 tri 9666 9720 9681
20261 9 tri 9705 9761 9720
20262 9 tri 9760 9768 9800
20263 9 tri 9720 9761 9768
20264 9 tri 9726 9760 9714
20265 9 tri 9868 9841 9884
20266 9 tri 9719 9736 9764
20267 9 tri 9760 9800 9780
20268 9 tri 9736 9690 9678
20269 9 tri 2432 9632 9641
20270 9 tri 9671 9726 9714
20271 9 tri 9720 9768 9726
20272 9 tri 9714 9736 9678
20273 9 tri 9682 9692 9632
20274 9 tri 9760 9736 9714
20275 9 tri 9780 9764 9736
20276 9 tri 9719 9764 9738
20277 9 tri 9780 9824 9805
20278 9 tri 9672 9667 9712
20279 9 tri 9738 9764 9781
20280 9 tri 9738 9781 9766
20281 9 tri 9764 9805 9781
20282 9 tri 9716 9692 9738
20283 9 tri 9665 9618 9641
20284 9 tri 9692 9682 9738
20285 9 tri 9690 9736 9719
20286 9 tri 2433 2432 9641
20287 9 tri 9632 9692 9641
20288 9 tri 9690 9643 9627
20289 9 tri 9690 9682 9643
20290 9 tri 9643 9682 9632
20291 9 tri 9719 9738 9682
20292 9 tri 9632 2431 9643
20293 9 tri 2429 2428 9630
20294 9 tri 2430 9643 2431
20295 9 tri 9618 2433 9641
20296 9 tri 2434 2433 9618
20297 9 tri 9627 2429 9630
20298 9 tri 9622 2437 2436
20299 9 tri 9653 2437 9622
20300 9 tri 9614 2439 2438
20301 9 tri 9647 9675 9628
20302 9 tri 9614 9647 2439
20303 9 tri 9628 9633 2441
20304 9 tri 3966 2443 9623
20305 9 tri 9676 9718 9680
20306 9 tri 9718 3967 9680
20307 9 tri 9722 9718 9676
20308 9 tri 3969 3968 9752
20309 9 tri 9756 9718 9722
20310 9 tri 3968 3967 9718
20311 9 tri 9756 9796 9789
20312 9 tri 9789 3969 9752
20313 9 tri 9756 9776 9796
20314 9 tri 9796 9832 9818
20315 9 tri 9814 9796 9776
20316 9 tri 9818 3971 3970
20317 9 tri 9717 9762 9734
20318 9 tri 9802 9814 9776
20319 9 tri 9728 9763 9773
20320 9 tri 9817 9831 9788
20321 9 tri 9776 9762 9802
20322 9 tri 9776 9734 9762
20323 9 tri 9734 9722 9675
20324 9 tri 9734 9776 9756
20325 9 tri 9718 9756 9752
20326 9 tri 9722 9734 9756
20327 9 tri 9722 9676 9675
20328 9 tri 9680 9623 9676
20329 9 tri 9633 2442 2441
20330 9 tri 9623 2443 2442
20331 9 tri 2440 9628 2441
20332 9 tri 9676 9623 9633
20333 9 tri 2439 9647 2440
20334 9 tri 9675 9633 9628
20335 9 tri 2440 9647 9628
20336 9 tri 9614 9664 9647
20337 9 tri 9717 9664 9702
20338 9 tri 9695 9675 9647
20339 9 tri 9717 9695 9664
20340 9 tri 9717 9734 9695
20341 9 tri 9653 9622 9672
20342 9 tri 9619 9652 9667
20343 9 tri 9619 9622 2436
20344 9 tri 9672 9702 9653
20345 9 tri 9664 9653 9702
20346 9 tri 9614 2438 9653
20347 9 tri 2436 2435 9619
20348 9 tri 9700 9652 9665
20349 9 tri 9619 2435 9652
20350 9 tri 9700 9667 9652
20351 9 tri 9672 9619 9667
20352 9 tri 9716 9700 9665
20353 9 tri 9728 9746 9702
20354 9 tri 9790 9744 9766
20355 9 tri 9665 9692 9716
20356 9 tri 9716 9744 9700
20357 9 tri 9773 9817 9788
20358 9 tri 9712 9728 9672
20359 9 tri 9712 9763 9728
20360 9 tri 9744 9763 9712
20361 9 tri 9766 9781 9811
20362 9 tri 9746 9773 9788
20363 9 tri 9746 9728 9773
20364 9 tri 9700 9744 9712
20365 9 tri 9716 9766 9744
20366 9 tri 9806 9790 9834
20367 9 tri 9763 9744 9790
20368 9 tri 9839 9814 9802
20369 9 tri 9848 9832 9814
20370 9 tri 9814 9832 9796
20371 9 tri 9848 9874 9866
20372 9 tri 9832 9866 9846
20373 9 tri 9832 9848 9866
20374 9 tri 9905 9930 9911
20375 9 tri 9930 9905 9921
20376 9 tri 9911 9888 9905
20377 9 tri 9921 9951 9930
20378 9 tri 9934 9911 9930
20379 9 tri 9921 9947 9951
20380 9 tri 10021 10008 9994
20381 9 tri 9951 9975 9973
20382 9 tri 3982 10052 10066
20383 9 tri 9994 10008 9986
20384 9 tri 10022 10020 10040
20385 9 tri 9977 9964 9986
20386 9 tri 9973 9994 9986
20387 9 tri 3978 9977 9992
20388 9 tri 9986 10008 10004
20389 9 tri 9953 9954 9934
20390 9 tri 9992 9986 10004
20391 9 tri 9953 9964 9954
20392 9 tri 9953 9973 9964
20393 9 tri 9992 9977 9986
20394 9 tri 3977 3976 9954
20395 9 tri 10008 10024 10004
20396 9 tri 3979 3978 9992
20397 9 tri 3980 10015 10031
20398 9 tri 9992 10004 10015
20399 9 tri 9992 10015 3979
20400 9 tri 3979 10015 3980
20401 9 tri 9934 9927 9911
20402 9 tri 9934 9954 9927
20403 9 tri 9876 9903 3973
20404 9 tri 9888 9903 9876
20405 9 tri 9927 9903 9911
20406 9 tri 3974 3973 9903
20407 9 tri 9796 9818 9789
20408 9 tri 9832 9846 9818
20409 9 tri 9876 9846 9866
20410 9 tri 3972 3971 9846
20411 9 tri 9876 3972 9846
20412 9 tri 3972 9876 3973
20413 9 tri 9866 9888 9876
20414 9 tri 9954 9977 3977
20415 9 tri 3978 3977 9977
20416 9 tri 3980 10031 3981
20417 9 tri 3981 10031 10052
20418 9 tri 10116 10134 3986
20419 9 tri 10116 3986 3985
20420 9 tri 10155 3988 3987
20421 9 tri 3988 10176 3989
20422 9 tri 10205 10192 10184
20423 9 tri 10155 10147 10166
20424 9 tri 10166 10184 10176
20425 9 tri 10205 10213 10192
20426 9 tri 10155 10134 10147
20427 9 tri 10134 3987 3986
20428 9 tri 10155 10176 3988
20429 9 tri 10066 10085 3983
20430 9 tri 10103 3985 3984
20431 9 tri 3982 3981 10052
20432 9 tri 10015 10004 10024
20433 9 tri 10057 10062 10044
20434 9 tri 3983 3982 10066
20435 9 tri 3983 10085 3984
20436 9 tri 10116 10129 10134
20437 9 tri 10099 10085 10079
20438 9 tri 10103 3984 10085
20439 9 tri 10031 10024 10044
20440 9 tri 10031 10015 10024
20441 9 tri 10008 10030 10024
20442 9 tri 10062 10079 10066
20443 9 tri 10093 10091 10112
20444 9 tri 10044 10024 10030
20445 9 tri 10030 10057 10044
20446 9 tri 10071 10058 10090
20447 9 tri 10052 10062 10066
20448 9 tri 10072 10067 10091
20449 9 tri 10066 10079 10085
20450 9 tri 10062 10057 10072
20451 9 tri 10099 10111 10116
20452 9 tri 10146 10159 10164
20453 9 tri 10085 10099 10103
20454 9 tri 10079 10093 10099
20455 9 tri 10099 10116 10103
20456 9 tri 10129 10147 10134
20457 9 tri 10179 10184 10164
20458 9 tri 10176 10155 10166
20459 9 tri 10176 10184 10192
20460 9 tri 10179 10159 10183
20461 9 tri 10111 10129 10116
20462 9 tri 10111 10112 10127
20463 9 tri 10166 10164 10184
20464 9 tri 10166 10147 10164
20465 9 tri 10159 10179 10164
20466 9 tri 10183 10203 10179
20467 9 tri 10111 10127 10129
20468 9 tri 10112 10115 10136
20469 9 tri 10147 10146 10164
20470 9 tri 10127 10136 10146
20471 9 tri 10109 10133 10115
20472 9 tri 10140 10124 10160
20473 9 tri 10133 10136 10115
20474 9 tri 10159 10146 10136
20475 9 tri 10159 10158 10183
20476 9 tri 10140 10109 10124
20477 9 tri 10133 10162 10158
20478 9 tri 10217 10222 10246
20479 9 tri 10160 10190 10162
20480 9 tri 10160 10174 10194
20481 9 tri 10190 10194 10222
20482 9 tri 10190 10160 10194
20483 9 tri 10080 10102 10069
20484 9 tri 10124 10109 10090
20485 9 tri 10160 10144 10174
20486 9 tri 10160 10162 10140
20487 9 tri 10144 10124 10102
20488 9 tri 10144 10160 10124
20489 9 tri 10133 10140 10162
20490 9 tri 10133 10109 10140
20491 9 tri 10030 10021 10048
20492 9 tri 10027 10021 9998
20493 9 tri 10040 10071 10051
20494 9 tri 10090 10109 10071
20495 9 tri 10071 10092 10067
20496 9 tri 10071 10109 10092
20497 9 tri 10058 10034 10069
20498 9 tri 10020 9984 10003
20499 9 tri 10034 10045 10069
20500 9 tri 10038 10053 10077
20501 9 tri 10027 10022 10051
20502 9 tri 9998 9975 9974
20503 9 tri 10071 10040 10058
20504 9 tri 10051 10022 10040
20505 9 tri 10067 10048 10051
20506 9 tri 10030 10008 10021
20507 9 tri 10048 10067 10072
20508 9 tri 10051 10071 10067
20509 9 tri 10093 10072 10091
20510 9 tri 10067 10092 10091
20511 9 tri 10062 10072 10079
20512 9 tri 10057 10048 10072
20513 9 tri 10111 10093 10112
20514 9 tri 10079 10072 10093
20515 9 tri 9998 10021 9994
20516 9 tri 10027 10048 10021
20517 9 tri 10030 10048 10057
20518 9 tri 10027 10051 10048
20519 9 tri 9951 9947 9975
20520 9 tri 9942 9959 9974
20521 9 tri 10020 9993 9984
20522 9 tri 10022 9998 9993
20523 9 tri 10027 9998 10022
20524 9 tri 9994 9975 9998
20525 9 tri 9947 9974 9975
20526 9 tri 9959 9993 9974
20527 9 tri 9915 9947 9921
20528 9 tri 9942 9974 9947
20529 9 tri 9953 9951 9973
20530 9 tri 9953 9930 9951
20531 9 tri 9883 9895 9865
20532 9 tri 9921 9905 9895
20533 9 tri 9865 9839 9831
20534 9 tri 9874 9848 9839
20535 9 tri 9883 9865 9857
20536 9 tri 9895 9874 9865
20537 9 tri 9831 9817 9857
20538 9 tri 9773 9763 9806
20539 9 tri 9865 9831 9857
20540 9 tri 9802 9788 9831
20541 9 tri 9850 9892 9857
20542 9 tri 9915 9921 9895
20543 9 tri 9892 9915 9883
20544 9 tri 9942 9947 9915
20545 9 tri 9834 9850 9806
20546 9 tri 9877 9892 9850
20547 9 tri 9817 9806 9850
20548 9 tri 9817 9773 9806
20549 9 tri 9811 9834 9790
20550 9 tri 9926 9912 9952
20551 9 tri 9766 9811 9790
20552 9 tri 9825 9852 9811
20553 9 tri 9811 9852 9834
20554 9 tri 9897 9920 9937
20555 9 tri 9825 9863 9852
20556 9 tri 9824 9780 9800
20557 9 tri 9834 9877 9850
20558 9 tri 9852 9863 9897
20559 9 tri 9877 9897 9912
20560 9 tri 9863 9885 9897
20561 9 tri 9857 9892 9883
20562 9 tri 9877 9912 9892
20563 9 tri 9915 9926 9942
20564 9 tri 9892 9912 9926
20565 9 tri 10002 10007 9965
20566 9 tri 9984 9952 9976
20567 9 tri 10020 10003 10034
20568 9 tri 9984 9976 10003
20569 9 tri 9965 9937 9920
20570 9 tri 9976 9952 9937
20571 9 tri 9976 10007 10003
20572 9 tri 10002 10038 10007
20573 9 tri 9904 9938 9920
20574 9 tri 9931 9962 9969
20575 9 tri 9868 9884 9904
20576 9 tri 9931 9938 9904
20577 9 tri 9991 10006 9962
20578 9 tri 10002 9965 9969
20579 9 tri 9843 9882 9849
20580 9 tri 9922 9931 9884
20581 9 tri 9868 9824 9841
20582 9 tri 9849 9882 9884
20583 9 tri 9825 9844 9863
20584 9 tri 9904 9920 9885
20585 9 tri 9863 9844 9885
20586 9 tri 9805 9764 9780
20587 9 tri 9825 9805 9844
20588 9 tri 9825 9781 9805
20589 9 tri 9804 9841 9800
20590 9 tri 9844 9805 9824
20591 9 tri 9841 9804 9849
20592 9 tri 9768 9761 9804
20593 9 tri 9804 9815 9849
20594 9 tri 9779 9803 9815
20595 9 tri 9800 9841 9824
20596 9 tri 9849 9884 9841
20597 9 tri 9885 9868 9904
20598 9 tri 9844 9824 9868
20599 9 tri 9867 9880 9843
20600 9 tri 9907 9916 9880
20601 9 tri 9882 9843 9880
20602 9 tri 9815 9803 9843
20603 9 tri 9801 9842 9827
20604 9 tri 9958 9944 9983
20605 9 tri 9835 9820 9795
20606 9 tri 9842 9867 9827
20607 9 tri 9808 9835 9795
20608 9 tri 9873 9860 9835
20609 9 tri 9835 9860 9820
20610 9 tri 9929 9939 9968
20611 9 tri 9820 9860 9842
20612 9 tri 9873 9909 9900
20613 9 tri 9842 9860 9881
20614 9 tri 9860 9873 9900
20615 9 tri 9842 9881 9867
20616 9 tri 9900 9939 9929
20617 9 tri 9867 9907 9880
20618 9 tri 9881 9900 9929
20619 9 tri 9882 9916 9922
20620 9 tri 9907 9929 9944
20621 9 tri 9962 9958 9991
20622 9 tri 9916 9907 9944
20623 9 tri 9944 9929 9968
20624 9 tri 9907 9881 9929
20625 9 tri 9983 9944 9968
20626 9 tri 9958 9916 9944
20627 9 tri 9966 10001 9968
20628 9 tri 9966 10000 10001
20629 9 tri 10056 10019 10012
20630 9 tri 10001 10039 10047
20631 9 tri 10131 10120 10087
20632 9 tri 10185 10161 10211
20633 9 tri 10035 10019 10056
20634 9 tri 10047 10087 10083
20635 9 tri 10001 10012 9968
20636 9 tri 9991 9958 9983
20637 9 tri 10083 10056 10047
20638 9 tri 9983 9968 10012
20639 9 tri 9991 10019 10035
20640 9 tri 9983 10012 10019
20641 9 tri 10038 10006 10053
20642 9 tri 10002 9969 10006
20643 9 tri 10007 10038 10045
20644 9 tri 10002 10006 10038
20645 9 tri 10078 10096 10053
20646 9 tri 10114 10118 10080
20647 9 tri 10045 10080 10069
20648 9 tri 10077 10114 10080
20649 9 tri 10101 10056 10083
20650 9 tri 10078 10035 10056
20651 9 tri 10138 10114 10096
20652 9 tri 10077 10053 10096
20653 9 tri 10180 10138 10170
20654 9 tri 10096 10078 10126
20655 9 tri 10144 10118 10152
20656 9 tri 10077 10096 10114
20657 9 tri 10102 10118 10144
20658 9 tri 10102 10080 10118
20659 9 tri 10174 10152 10197
20660 9 tri 10174 10144 10152
20661 9 tri 10207 10180 10170
20662 9 tri 10197 10152 10180
20663 9 tri 10170 10138 10126
20664 9 tri 10180 10152 10138
20665 9 tri 10168 10170 10126
20666 9 tri 10210 10245 10207
20667 9 tri 10101 10139 10126
20668 9 tri 10139 10161 10185
20669 9 tri 10087 10120 10083
20670 9 tri 10126 10078 10101
20671 9 tri 10161 10139 10120
20672 9 tri 10168 10126 10139
20673 9 tri 10161 10120 10131
20674 9 tri 10139 10101 10120
20675 9 tri 10149 10131 10105
20676 9 tri 10149 10177 10131
20677 9 tri 10211 10161 10177
20678 9 tri 10211 10227 10185
20679 9 tri 10210 10185 10227
20680 9 tri 10168 10139 10185
20681 9 tri 10197 10180 10232
20682 9 tri 10210 10227 10257
20683 9 tri 10210 10257 10245
20684 9 tri 10227 10261 10257
20685 9 tri 10310 10274 10319
20686 9 tri 10257 10298 10290
20687 9 tri 10268 10274 10310
20688 9 tri 10245 10290 10274
20689 9 tri 10210 10207 10170
20690 9 tri 10245 10274 10232
20691 9 tri 10197 10232 10237
20692 9 tri 10207 10245 10232
20693 9 tri 10232 10268 10237
20694 9 tri 10296 10336 10317
20695 9 tri 10237 10204 10197
20696 9 tri 10237 10265 10233
20697 9 tri 10222 10233 10255
20698 9 tri 10204 10237 10233
20699 9 tri 10296 10291 10265
20700 9 tri 10317 10331 10291
20701 9 tri 10237 10268 10265
20702 9 tri 10331 10359 10330
20703 9 tri 10265 10268 10296
20704 9 tri 10232 10274 10268
20705 9 tri 10268 10310 10296
20706 9 tri 10274 10290 10319
20707 9 tri 10310 10336 10296
20708 9 tri 10349 10390 10379
20709 9 tri 10296 10317 10291
20710 9 tri 10336 10351 10317
20711 9 tri 10422 10402 10388
20712 9 tri 10367 10331 10351
20713 9 tri 10379 10388 10351
20714 9 tri 10452 10459 10479
20715 9 tri 10422 10379 10417
20716 9 tri 10351 10336 10379
20717 9 tri 10422 10388 10379
20718 9 tri 10367 10351 10388
20719 9 tri 10379 10390 10417
20720 9 tri 10349 10319 10362
20721 9 tri 10310 10319 10349
20722 9 tri 10290 10298 10332
20723 9 tri 10349 10362 10390
20724 9 tri 10319 10290 10332
20725 9 tri 10362 10332 10376
20726 9 tri 10362 10319 10332
20727 9 tri 10376 10339 10380
20728 9 tri 10298 10261 10300
20729 9 tri 10376 10380 10411
20730 9 tri 10221 10256 10211
20731 9 tri 10445 10400 10421
20732 9 tri 10390 10362 10400
20733 9 tri 10499 10530 10488
20734 9 tri 10400 10376 10421
20735 9 tri 10417 10430 10457
20736 9 tri 10390 10400 10430
20737 9 tri 10450 10463 10421
20738 9 tri 10474 10457 10430
20739 9 tri 10488 10474 10445
20740 9 tri 10517 10543 10506
20741 9 tri 10463 10450 10493
20742 9 tri 10391 10425 10380
20743 9 tri 10534 10499 10493
20744 9 tri 10445 10421 10463
20745 9 tri 10574 10569 10534
20746 9 tri 10535 10499 10534
20747 9 tri 10605 10620 10571
20748 9 tri 10571 10535 10569
20749 9 tri 10588 10574 10548
20750 9 tri 10611 10605 10569
20751 9 tri 10553 10530 10571
20752 9 tri 10488 10445 10463
20753 9 tri 10594 10553 10571
20754 9 tri 10578 10543 10553
20755 9 tri 10517 10488 10530
20756 9 tri 10517 10474 10488
20757 9 tri 10493 10499 10463
20758 9 tri 10535 10530 10499
20759 9 tri 10568 10532 10543
20760 9 tri 10457 10474 10506
20761 9 tri 10504 10490 10532
20762 9 tri 10506 10543 10532
20763 9 tri 10532 10573 10544
20764 9 tri 10568 10602 10612
20765 9 tri 10513 10552 10524
20766 9 tri 10544 10573 10584
20767 9 tri 10544 10584 10552
20768 9 tri 10573 10616 10584
20769 9 tri 10470 10513 10482
20770 9 tri 10544 10552 10513
20771 9 tri 10513 10524 10482
20772 9 tri 10563 10590 10601
20773 9 tri 10490 10504 10454
20774 9 tri 10402 10367 10388
20775 9 tri 10506 10490 10457
20776 9 tri 10532 10544 10504
20777 9 tri 10513 10504 10544
20778 9 tri 10513 10470 10504
20779 9 tri 10457 10454 10417
20780 9 tri 10498 10455 10482
20781 9 tri 10490 10454 10457
20782 9 tri 10470 10422 10454
20783 9 tri 10470 10438 10422
20784 9 tri 10498 10482 10524
20785 9 tri 10422 10438 10402
20786 9 tri 10470 10482 10438
20787 9 tri 10410 10387 10419
20788 9 tri 10402 10438 10419
20789 9 tri 10404 10431 10428
20790 9 tri 10437 10459 10431
20791 9 tri 10404 10410 10431
20792 9 tri 10419 10438 10455
20793 9 tri 10437 10455 10472
20794 9 tri 10498 10546 10521
20795 9 tri 10419 10455 10437
20796 9 tri 10438 10482 10455
20797 9 tri 10459 10472 10492
20798 9 tri 10459 10437 10472
20799 9 tri 10546 10498 10524
20800 9 tri 10492 10472 10498
20801 9 tri 10552 10567 10524
20802 9 tri 10521 10492 10498
20803 9 tri 10524 10567 10546
20804 9 tri 10552 10584 10596
20805 9 tri 10567 10590 10546
20806 9 tri 10523 10551 10560
20807 9 tri 10601 10579 10563
20808 9 tri 10601 10631 10645
20809 9 tri 10563 10521 10546
20810 9 tri 10563 10579 10538
20811 9 tri 10512 10486 10496
20812 9 tri 10510 10521 10538
20813 9 tri 10523 10510 10538
20814 9 tri 10479 10459 10492
20815 9 tri 10579 10551 10538
20816 9 tri 10452 10469 10442
20817 9 tri 10589 10551 10579
20818 9 tri 10523 10538 10551
20819 9 tri 10623 10589 10579
20820 9 tri 10539 10512 10523
20821 9 tri 10598 10565 10586
20822 9 tri 10586 10565 10554
20823 9 tri 10560 10539 10523
20824 9 tri 10515 10540 4007
20825 9 tri 10575 10539 10560
20826 9 tri 10501 10515 10491
20827 9 tri 10469 10486 10462
20828 9 tri 4006 10491 10515
20829 9 tri 10523 10496 10510
20830 9 tri 10496 10486 10469
20831 9 tri 10510 10496 10479
20832 9 tri 10523 10512 10496
20833 9 tri 10404 10428 10403
20834 9 tri 10431 10459 10452
20835 9 tri 10469 10452 10479
20836 9 tri 10428 10431 10452
20837 9 tri 10449 10436 10462
20838 9 tri 10428 10452 10442
20839 9 tri 10496 10469 10479
20840 9 tri 10462 10442 10469
20841 9 tri 10436 10418 10442
20842 9 tri 10428 10442 10418
20843 9 tri 10340 10364 10343
20844 9 tri 10364 10382 10373
20845 9 tri 10383 10365 10373
20846 9 tri 10398 10403 10418
20847 9 tri 10321 10312 10340
20848 9 tri 10383 10398 10405
20849 9 tri 10381 10382 10364
20850 9 tri 10403 10428 10418
20851 9 tri 10381 10403 10382
20852 9 tri 10381 10404 10403
20853 9 tri 10384 10410 10404
20854 9 tri 10384 10387 10410
20855 9 tri 10367 10387 10359
20856 9 tri 10419 10437 10410
20857 9 tri 10431 10410 10437
20858 9 tri 10404 10381 10384
20859 9 tri 10312 10333 10340
20860 9 tri 10361 10381 10364
20861 9 tri 10361 10384 10381
20862 9 tri 10360 10387 10384
20863 9 tri 10321 10340 10343
20864 9 tri 10333 10360 10361
20865 9 tri 10333 10361 10340
20866 9 tri 10360 10384 10361
20867 9 tri 10279 10275 10306
20868 9 tri 10306 10330 10307
20869 9 tri 10331 10330 10306
20870 9 tri 10359 10360 10330
20871 9 tri 10291 10331 10306
20872 9 tri 10317 10351 10331
20873 9 tri 10206 10217 10234
20874 9 tri 10190 10222 10217
20875 9 tri 10307 10279 10306
20876 9 tri 10246 10255 10275
20877 9 tri 10217 10206 10188
20878 9 tri 10234 10247 10226
20879 9 tri 10259 10279 10287
20880 9 tri 10259 10246 10279
20881 9 tri 10240 10226 10247
20882 9 tri 10203 10206 10226
20883 9 tri 10301 10280 10304
20884 9 tri 10270 10287 10292
20885 9 tri 10307 10312 10287
20886 9 tri 10307 10333 10312
20887 9 tri 10304 10280 10292
20888 9 tri 10260 10240 10247
20889 9 tri 10321 10304 10292
20890 9 tri 10316 10318 10334
20891 9 tri 10223 10205 10220
20892 9 tri 10184 10179 10200
20893 9 tri 10281 10263 10280
20894 9 tri 10242 10223 10220
20895 9 tri 10263 10242 10260
20896 9 tri 10249 3993 3992
20897 9 tri 10220 10205 10200
20898 9 tri 10223 10230 10213
20899 9 tri 10213 10205 10223
20900 9 tri 10242 10249 10230
20901 9 tri 10242 10263 10249
20902 9 tri 10280 10263 10260
20903 9 tri 10266 10249 10263
20904 9 tri 10326 10301 10304
20905 9 tri 10285 10266 10281
20906 9 tri 10280 10301 10281
20907 9 tri 10316 10334 3997
20908 9 tri 10365 10354 10373
20909 9 tri 10343 10364 10354
20910 9 tri 10364 10373 10354
20911 9 tri 10382 10398 10373
20912 9 tri 10318 10341 10334
20913 9 tri 10326 10343 10341
20914 9 tri 10374 10352 10365
20915 9 tri 10341 10354 10365
20916 9 tri 3997 3996 10316
20917 9 tri 3995 10285 10299
20918 9 tri 10326 10318 10301
20919 9 tri 10326 10341 10318
20920 9 tri 3996 3995 10299
20921 9 tri 10299 10318 10316
20922 9 tri 3999 3998 10352
20923 9 tri 10341 10352 10334
20924 9 tri 10352 10374 3999
20925 9 tri 10316 3996 10299
20926 9 tri 10299 10285 10281
20927 9 tri 3995 3994 10285
20928 9 tri 3991 10213 10230
20929 9 tri 3990 10192 10213
20930 9 tri 10213 3991 3990
20931 9 tri 3991 10230 3992
20932 9 tri 10230 10249 3992
20933 9 tri 4007 10540 4008
20934 9 tri 4008 10540 10565
20935 9 tri 10598 4010 4009
20936 9 tri 4013 10679 10723
20937 9 tri 4008 10565 4009
20938 9 tri 10540 10522 10554
20939 9 tri 10501 10477 10486
20940 9 tri 10477 10449 10462
20941 9 tri 10395 10413 4001
20942 9 tri 10432 10424 10449
20943 9 tri 10383 10405 10395
20944 9 tri 10477 10462 10486
20945 9 tri 4002 10413 10432
20946 9 tri 4004 10448 10468
20947 9 tri 4003 4002 10432
20948 9 tri 10432 10449 10448
20949 9 tri 10436 10442 10462
20950 9 tri 4000 10374 10395
20951 9 tri 4000 3999 10374
20952 9 tri 4003 10432 10448
20953 9 tri 10413 10405 10424
20954 9 tri 10374 10383 10395
20955 9 tri 10373 10398 10383
20956 9 tri 10395 10405 10413
20957 9 tri 10398 10418 10405
20958 9 tri 10413 10424 10432
20959 9 tri 10405 10418 10424
20960 9 tri 10424 10436 10449
20961 9 tri 10424 10418 10436
20962 9 tri 10501 10491 10477
20963 9 tri 10468 10448 10449
20964 9 tri 10491 10468 10477
20965 9 tri 4005 4004 10468
20966 9 tri 10539 10522 10512
20967 9 tri 4006 4005 10491
20968 9 tri 4006 10515 4007
20969 9 tri 10515 10501 10522
20970 9 tri 10554 10522 10539
20971 9 tri 10540 10515 10522
20972 9 tri 10512 10501 10486
20973 9 tri 10512 10522 10501
20974 9 tri 10540 10554 10565
20975 9 tri 10539 10575 10554
20976 9 tri 10601 10623 10579
20977 9 tri 10685 10728 10722
20978 9 tri 10606 10589 10623
20979 9 tri 10575 10560 10589
20980 9 tri 10639 10606 10623
20981 9 tri 10637 10626 10599
20982 9 tri 10645 10668 10623
20983 9 tri 10685 10676 10639
20984 9 tri 10601 10645 10623
20985 9 tri 10645 10680 10695
20986 9 tri 10623 10668 10639
20987 9 tri 10645 10695 10668
20988 9 tri 10668 10695 10717
20989 9 tri 10665 10631 10614
20990 9 tri 10773 10717 10758
20991 9 tri 10717 10773 10728
20992 9 tri 6874 10758 6873
20993 9 tri 10765 10778 6876
20994 9 tri 10668 10685 10639
20995 9 tri 10668 10717 10685
20996 9 tri 10773 10778 10728
20997 9 tri 6875 6876 10778
20998 9 tri 10676 10722 10699
20999 9 tri 10728 10778 10722
21000 9 tri 6878 10750 6877
21001 9 tri 10722 10778 10765
21002 9 tri 4015 10777 6878
21003 9 tri 10765 6876 6877
21004 9 tri 10750 10699 10765
21005 9 tri 10723 10750 10777
21006 9 tri 10723 10699 10750
21007 9 tri 10626 10660 10638
21008 9 tri 10638 10660 10679
21009 9 tri 10626 10637 10660
21010 9 tri 10685 10722 10676
21011 9 tri 10765 10699 10722
21012 9 tri 10723 10679 10699
21013 9 tri 10637 10599 10606
21014 9 tri 10626 10598 10586
21015 9 tri 10639 10637 10606
21016 9 tri 10676 10660 10637
21017 9 tri 10575 10586 10554
21018 9 tri 10599 10626 10586
21019 9 tri 4012 10638 10679
21020 9 tri 10598 10626 10638
21021 9 tri 10598 10638 4011
21022 9 tri 4010 10598 4011
21023 9 tri 4013 4012 10679
21024 9 tri 4011 10638 4012
21025 9 tri 6878 10777 10750
21026 9 tri 10777 4014 10723
21027 9 tri 4014 10777 4015
21028 9 tri 6875 10773 6874
21029 9 tri 10758 10731 6873
21030 9 tri 6874 10773 10758
21031 9 tri 10762 10709 10746
21032 9 tri 6872 6873 10731
21033 9 tri 6871 6872 10769
21034 9 tri 10718 10757 10714
21035 9 tri 6870 10757 6869
21036 9 tri 10764 6871 10769
21037 9 tri 10670 10718 10678
21038 9 tri 10709 10762 10718
21039 9 tri 10764 10757 6870
21040 9 tri 10718 10762 10757
21041 9 tri 10715 10764 10769
21042 9 tri 10714 10757 10764
21043 9 tri 10714 10715 10665
21044 9 tri 10769 10731 10715
21045 9 tri 10601 10590 10631
21046 9 tri 10563 10546 10590
21047 9 tri 10695 10680 10715
21048 9 tri 10645 10631 10680
21049 9 tri 10596 10634 10614
21050 9 tri 10634 10665 10614
21051 9 tri 10630 10670 10634
21052 9 tri 10678 10665 10634
21053 9 tri 10714 10665 10678
21054 9 tri 10680 10631 10665
21055 9 tri 10718 10714 10678
21056 9 tri 10764 10715 10714
21057 9 tri 10718 10670 10709
21058 9 tri 10634 10596 10630
21059 9 tri 10552 10596 10567
21060 9 tri 10584 10616 10630
21061 9 tri 10584 10630 10596
21062 9 tri 10616 10656 10661
21063 9 tri 10578 10602 10568
21064 9 tri 10640 10683 10654
21065 9 tri 10573 10612 10616
21066 9 tri 10602 10654 10612
21067 9 tri 10694 10702 10656
21068 9 tri 10670 10630 10661
21069 9 tri 10654 10694 10656
21070 9 tri 10654 10705 10694
21071 9 tri 10683 10710 10729
21072 9 tri 10687 10664 10641
21073 9 tri 10661 10702 10709
21074 9 tri 10694 10739 10702
21075 9 tri 10702 10746 10709
21076 9 tri 10702 10739 10754
21077 9 tri 6867 10754 6866
21078 9 tri 10746 10702 10754
21079 9 tri 10746 6867 6868
21080 9 tri 10705 10683 10729
21081 9 tri 10743 6864 6865
21082 9 tri 10770 10771 6863
21083 9 tri 10729 10710 10771
21084 9 tri 10734 6861 6862
21085 9 tri 10710 10734 10771
21086 9 tri 10760 6860 6861
21087 9 tri 10710 10687 10734
21088 9 tri 10716 10696 10755
21089 9 tri 10734 10687 10760
21090 9 tri 10649 10620 10605
21091 9 tri 10770 10729 10771
21092 9 tri 10687 10641 10666
21093 9 tri 10705 10729 10770
21094 9 tri 10705 10654 10683
21095 9 tri 10602 10640 10654
21096 9 tri 10640 10664 10683
21097 9 tri 10619 10640 10602
21098 9 tri 10619 10664 10640
21099 9 tri 10683 10664 10710
21100 9 tri 10619 10594 10641
21101 9 tri 10620 10594 10571
21102 9 tri 10619 10578 10594
21103 9 tri 10569 10605 10571
21104 9 tri 10641 10664 10619
21105 9 tri 10666 10641 10620
21106 9 tri 10666 10716 10687
21107 9 tri 10760 10687 10716
21108 9 tri 10710 10664 10687
21109 9 tri 10736 10692 10693
21110 9 tri 10696 10666 10649
21111 9 tri 10574 10611 10569
21112 9 tri 10649 10666 10620
21113 9 tri 10611 10651 10605
21114 9 tri 10696 10716 10666
21115 9 tri 10618 10611 10574
21116 9 tri 10651 10692 10649
21117 9 tri 10618 10657 10611
21118 9 tri 10745 6855 10753
21119 9 tri 10611 10657 10651
21120 9 tri 10659 10658 10697
21121 9 tri 10651 10693 10692
21122 9 tri 10663 10618 10628
21123 9 tri 10745 10753 10703
21124 9 tri 10740 10736 10693
21125 9 tri 10692 10696 10649
21126 9 tri 10692 10736 10738
21127 9 tri 10693 10703 10740
21128 9 tri 6859 10738 6858
21129 9 tri 10696 10692 10738
21130 9 tri 10760 10755 6860
21131 9 tri 10760 10716 10755
21132 9 tri 10753 10740 10703
21133 9 tri 10753 6856 10740
21134 9 tri 10700 10742 10745
21135 9 tri 6855 6856 10753
21136 9 tri 6857 10740 6856
21137 9 tri 10736 6857 6858
21138 9 tri 10736 10740 6857
21139 9 tri 10738 10736 6858
21140 9 tri 10755 6859 6860
21141 9 tri 10755 10738 6859
21142 9 tri 10771 10734 6862
21143 9 tri 6862 6863 10771
21144 9 tri 10745 6854 6855
21145 9 tri 10735 10706 10761
21146 9 tri 6835 6836 10737
21147 9 tri 10725 10720 10677
21148 9 tri 6846 10763 6845
21149 9 tri 10774 10725 10767
21150 9 tri 10707 10741 10767
21151 9 tri 6843 10741 6842
21152 9 tri 10719 10759 10752
21153 9 tri 10759 6841 10752
21154 9 tri 6841 10759 6840
21155 9 tri 10752 10691 10719
21156 9 tri 6842 10752 6841
21157 9 tri 10759 10751 6840
21158 9 tri 6838 10733 6837
21159 9 tri 10779 6838 6839
21160 9 tri 10779 10733 6838
21161 9 tri 10772 10780 10730
21162 9 tri 6836 10766 10737
21163 9 tri 10772 6834 10780
21164 9 tri 10737 10766 10711
21165 9 tri 6836 6837 10766
21166 9 tri 6840 10751 6839
21167 9 tri 10733 10766 6837
21168 9 tri 10727 10733 10779
21169 9 tri 10690 10711 10733
21170 9 tri 10698 10737 10711
21171 9 tri 10766 10733 10711
21172 9 tri 10669 10698 10711
21173 9 tri 10780 6835 10737
21174 9 tri 10622 10652 10624
21175 9 tri 10686 10730 10698
21176 9 tri 10652 10698 10669
21177 9 tri 10652 10650 10686
21178 9 tri 10653 10644 10608
21179 9 tri 10681 10701 10648
21180 9 tri 10576 10624 10608
21181 9 tri 10669 10711 10653
21182 9 tri 10690 10681 10644
21183 9 tri 10690 10733 10727
21184 9 tri 10690 10727 10681
21185 9 tri 10751 10759 10701
21186 9 tri 10779 10751 10727
21187 9 tri 10779 6839 10751
21188 9 tri 10647 10672 10691
21189 9 tri 10701 10759 10719
21190 9 tri 10707 10725 10677
21191 9 tri 10767 6844 10774
21192 9 tri 10647 10662 10621
21193 9 tri 10707 10677 10662
21194 9 tri 10691 10672 10719
21195 9 tri 10647 10603 10627
21196 9 tri 10662 10633 10621
21197 9 tri 10677 10674 10633
21198 9 tri 10646 10642 10688
21199 9 tri 10600 10597 10642
21200 9 tri 10642 10655 10689
21201 9 tri 10642 10610 10655
21202 9 tri 10667 10706 10655
21203 9 tri 10732 10688 10689
21204 9 tri 10720 10674 10677
21205 9 tri 10720 10712 10674
21206 9 tri 10761 10706 10748
21207 9 tri 10689 10655 10706
21208 9 tri 10763 10720 10774
21209 9 tri 6844 6845 10774
21210 9 tri 10748 6846 6847
21211 9 tri 10667 10712 10706
21212 9 tri 10763 6846 10748
21213 9 tri 6847 10761 10748
21214 9 tri 6848 6849 10735
21215 9 tri 10763 10712 10720
21216 9 tri 10748 10706 10712
21217 9 tri 6848 10735 10761
21218 9 tri 10732 10689 10735
21219 9 tri 10671 10646 10704
21220 9 tri 10688 10732 10747
21221 9 tri 10704 10747 10744
21222 9 tri 10732 6849 6850
21223 9 tri 10747 6850 6851
21224 9 tri 6852 10749 10744
21225 9 tri 6852 6853 10749
21226 9 tri 10742 6853 6854
21227 9 tri 10749 10742 10697
21228 9 tri 10749 6853 10742
21229 9 tri 10700 10745 10703
21230 9 tri 10742 6854 10745
21231 9 tri 10663 10659 10700
21232 9 tri 10659 10697 10700
21233 9 tri 10747 10704 10688
21234 9 tri 10708 10697 10658
21235 9 tri 10744 10708 10704
21236 9 tri 10744 10749 10708
21237 9 tri 10704 10646 10688
21238 9 tri 10629 10600 10646
21239 9 tri 10658 10671 10708
21240 9 tri 10658 10629 10671
21241 9 tri 10703 10663 10700
21242 9 tri 10541 10566 10527
21243 9 tri 10657 10663 10703
21244 9 tri 10657 10618 10663
21245 9 tri 10663 10628 10659
21246 9 tri 10566 10548 10527
21247 9 tri 10534 10508 10548
21248 9 tri 10425 10411 10380
21249 9 tri 10618 10588 10628
21250 9 tri 10618 10574 10588
21251 9 tri 10581 10541 10559
21252 9 tri 10541 10495 10514
21253 9 tri 10581 10566 10541
21254 9 tri 10609 10628 10588
21255 9 tri 10581 10609 10566
21256 9 tri 10629 10658 10609
21257 9 tri 10581 10559 10600
21258 9 tri 10564 10582 10610
21259 9 tri 10595 10625 10582
21260 9 tri 10632 10674 10667
21261 9 tri 10595 10632 10625
21262 9 tri 10595 10633 10632
21263 9 tri 10542 10570 10529
21264 9 tri 10595 10556 10555
21265 9 tri 10582 10564 10537
21266 9 tri 10525 10559 10514
21267 9 tri 10597 10559 10564
21268 9 tri 10597 10600 10559
21269 9 tri 10629 10581 10600
21270 9 tri 10629 10609 10581
21271 9 tri 10541 10514 10559
21272 9 tri 10484 10502 10525
21273 9 tri 10519 10502 10480
21274 9 tri 10537 10525 10502
21275 9 tri 10529 10519 10494
21276 9 tri 10556 10537 10519
21277 9 tri 10494 10451 10461
21278 9 tri 10480 10502 10460
21279 9 tri 10494 10480 10451
21280 9 tri 10494 10519 10480
21281 9 tri 10407 10440 10412
21282 9 tri 10451 10480 10440
21283 9 tri 10439 10460 10484
21284 9 tri 10440 10480 10460
21285 9 tri 10426 10439 10471
21286 9 tri 10396 10356 10412
21287 9 tri 10495 10471 10514
21288 9 tri 10439 10484 10471
21289 9 tri 10527 10495 10541
21290 9 tri 10471 10484 10514
21291 9 tri 10508 10495 10527
21292 9 tri 10508 10473 10495
21293 9 tri 10548 10508 10527
21294 9 tri 10493 10450 10473
21295 9 tri 10495 10456 10471
21296 9 tri 10450 10411 10425
21297 9 tri 10425 10473 10450
21298 9 tri 10456 10495 10473
21299 9 tri 10391 10426 10425
21300 9 tri 10456 10473 10425
21301 9 tri 10339 10346 10380
21302 9 tri 10356 10377 10412
21303 9 tri 10439 10426 10396
21304 9 tri 10456 10425 10426
21305 9 tri 10313 10357 10346
21306 9 tri 10396 10426 10391
21307 9 tri 10391 10346 10357
21308 9 tri 10339 10298 10300
21309 9 tri 10346 10391 10380
21310 9 tri 10357 10396 10391
21311 9 tri 10221 10273 10256
21312 9 tri 10346 10339 10300
21313 9 tri 10239 10221 10193
21314 9 tri 10256 10261 10211
21315 9 tri 10239 10273 10221
21316 9 tri 10300 10261 10256
21317 9 tri 10165 10209 10193
21318 9 tri 10284 10325 10313
21319 9 tri 10256 10273 10300
21320 9 tri 10356 10308 10337
21321 9 tri 10239 10284 10273
21322 9 tri 10239 10209 10254
21323 9 tri 10300 10313 10346
21324 9 tri 10273 10284 10313
21325 9 tri 10308 10254 10269
21326 9 tri 10284 10239 10254
21327 9 tri 10224 10209 10181
21328 9 tri 10239 10193 10209
21329 9 tri 10244 10224 10198
21330 9 tri 10254 10209 10224
21331 9 tri 10181 10198 10224
21332 9 tri 10252 10277 10288
21333 9 tri 10288 10295 10244
21334 9 tri 10295 10337 10308
21335 9 tri 10308 10269 10295
21336 9 tri 10254 10224 10269
21337 9 tri 10337 10295 10329
21338 9 tri 10269 10244 10295
21339 9 tri 10356 10325 10308
21340 9 tri 10284 10254 10308
21341 9 tri 10313 10325 10357
21342 9 tri 10284 10308 10325
21343 9 tri 10377 10356 10337
21344 9 tri 10396 10357 10356
21345 9 tri 10329 10371 10337
21346 9 tri 10412 10439 10396
21347 9 tri 10407 10412 10377
21348 9 tri 10440 10460 10412
21349 9 tri 10355 10392 10371
21350 9 tri 10451 10440 10407
21351 9 tri 10371 10407 10377
21352 9 tri 10371 10392 10416
21353 9 tri 10375 10392 10355
21354 9 tri 10433 10461 10416
21355 9 tri 10323 10345 10358
21356 9 tri 10409 10392 10375
21357 9 tri 10342 10358 10375
21358 9 tri 10423 10415 10441
21359 9 tri 10375 10355 10342
21360 9 tri 10277 10286 10311
21361 9 tri 10295 10288 10329
21362 9 tri 10277 10311 10314
21363 9 tri 10314 10355 10329
21364 9 tri 10314 10342 10355
21365 9 tri 10314 10288 10277
21366 9 tri 10314 10329 10288
21367 9 tri 10198 10212 10244
21368 9 tri 10169 10156 10195
21369 9 tri 10244 10252 10288
21370 9 tri 10212 10195 10235
21371 9 tri 10178 10195 10156
21372 9 tri 10178 10199 10216
21373 9 tri 10178 10216 10195
21374 9 tri 10251 10286 10277
21375 9 tri 10212 10235 10252
21376 9 tri 10216 10229 10251
21377 9 tri 10216 10251 10235
21378 9 tri 10229 10262 10251
21379 9 tri 10251 10262 10286
21380 9 tri 10229 10214 10241
21381 9 tri 10214 10199 10182
21382 9 tri 10229 10216 10199
21383 9 tri 10199 10214 10229
21384 9 tri 10196 10191 10215
21385 9 tri 10182 10196 10214
21386 9 tri 10182 10171 10196
21387 9 tri 10236 10228 10215
21388 9 tri 10214 10196 10228
21389 9 tri 10229 10241 10262
21390 9 tri 10214 10228 10241
21391 9 tri 10282 10276 10258
21392 9 tri 10241 10228 10250
21393 9 tri 10294 10272 10297
21394 9 tri 10262 10241 10272
21395 9 tri 10323 10294 10320
21396 9 tri 10286 10262 10294
21397 9 tri 10345 10323 10320
21398 9 tri 10342 10311 10323
21399 9 tri 10348 10345 10320
21400 9 tri 10372 10389 10358
21401 9 tri 10375 10358 10389
21402 9 tri 10342 10323 10358
21403 9 tri 10320 10327 10348
21404 9 tri 10320 10297 10327
21405 9 tri 10415 10397 10394
21406 9 tri 10372 10348 10370
21407 9 tri 10372 10397 10401
21408 9 tri 10372 10370 10397
21409 9 tri 10446 10423 10441
21410 9 tri 10397 10415 10423
21411 9 tri 10446 10467 10478
21412 9 tri 10441 10458 10467
21413 9 tri 10464 10507 10489
21414 9 tri 10478 10497 10507
21415 9 tri 10372 10401 10389
21416 9 tri 10397 10423 10401
21417 9 tri 10464 10447 10429
21418 9 tri 10429 10423 10446
21419 9 tri 10389 10429 10409
21420 9 tri 10401 10423 10429
21421 9 tri 10409 10433 10392
21422 9 tri 10451 10407 10416
21423 9 tri 10392 10433 10416
21424 9 tri 10409 10447 10433
21425 9 tri 10489 10516 10476
21426 9 tri 10529 10494 10503
21427 9 tri 10542 10516 10550
21428 9 tri 10503 10476 10516
21429 9 tri 10446 10464 10429
21430 9 tri 10476 10433 10447
21431 9 tri 10507 10464 10478
21432 9 tri 10489 10447 10464
21433 9 tri 10572 10550 10528
21434 9 tri 10603 10647 10621
21435 9 tri 10503 10542 10529
21436 9 tri 10577 10592 10627
21437 9 tri 10529 10570 10555
21438 9 tri 10577 10550 10592
21439 9 tri 10633 10593 10621
21440 9 tri 10633 10595 10593
21441 9 tri 10542 10577 10570
21442 9 tri 10627 10648 10672
21443 9 tri 10570 10577 10603
21444 9 tri 10542 10550 10577
21445 9 tri 10577 10627 10603
21446 9 tri 10592 10617 10627
21447 9 tri 10648 10617 10644
21448 9 tri 10592 10572 10617
21449 9 tri 10572 10528 10547
21450 9 tri 10550 10516 10528
21451 9 tri 10617 10572 10608
21452 9 tri 10592 10550 10572
21453 9 tri 10583 10557 10545
21454 9 tri 10591 10576 10557
21455 9 tri 10624 10576 10591
21456 9 tri 10608 10572 10576
21457 9 tri 10583 10622 10591
21458 9 tri 10585 10561 10580
21459 9 tri 10622 10624 10591
21460 9 tri 10669 10653 10624
21461 9 tri 10511 10481 10505
21462 9 tri 10458 10443 10465
21463 9 tri 10434 10443 10458
21464 9 tri 10434 10408 10420
21465 9 tri 10458 10465 10481
21466 9 tri 10443 10453 10465
21467 9 tri 10434 10420 10443
21468 9 tri 10378 10363 10353
21469 9 tri 10443 10435 10453
21470 9 tri 10406 10386 8447
21471 9 tri 10518 10483 10500
21472 9 tri 10481 10465 10483
21473 9 tri 10485 10475 10466
21474 9 tri 10483 10465 10475
21475 9 tri 8452 10485 8451
21476 9 tri 10500 10483 10475
21477 9 tri 8452 10509 10485
21478 9 tri 10505 10531 10511
21479 9 tri 10406 10427 10414
21480 9 tri 8448 8449 10427
21481 9 tri 10485 10466 8451
21482 9 tri 10453 10444 10466
21483 9 tri 10435 10414 10427
21484 9 tri 10399 10408 10385
21485 9 tri 8450 10444 8449
21486 9 tri 10453 10435 10444
21487 9 tri 10427 10406 8448
21488 9 tri 10399 10420 10408
21489 9 tri 10414 10393 10406
21490 9 tri 10369 10350 10368
21491 9 tri 8445 10350 8444
21492 9 tri 10386 10368 8446
21493 9 tri 8443 10338 10322
21494 9 tri 10350 10353 10335
21495 9 tri 8446 10368 8445
21496 9 tri 10386 10369 10368
21497 9 tri 10393 10378 10369
21498 9 tri 10378 10353 10369
21499 9 tri 10386 10393 10369
21500 9 tri 10366 10394 10370
21501 9 tri 10406 10393 10386
21502 9 tri 10414 10420 10399
21503 9 tri 10393 10399 10378
21504 9 tri 10408 10394 10385
21505 9 tri 10378 10399 10385
21506 9 tri 10393 10414 10399
21507 9 tri 10363 10344 10353
21508 9 tri 10282 10303 10276
21509 9 tri 10363 10366 10347
21510 9 tri 10385 10394 10366
21511 9 tri 10347 10328 10344
21512 9 tri 10347 10327 10328
21513 9 tri 10315 10335 10324
21514 9 tri 10344 10328 10324
21515 9 tri 10344 10335 10353
21516 9 tri 10324 10305 10315
21517 9 tri 10293 10305 10289
21518 9 tri 10293 10302 10315
21519 9 tri 10278 10289 10267
21520 9 tri 10305 10324 10309
21521 9 tri 10282 10309 10303
21522 9 tri 10289 10305 10309
21523 9 tri 10258 10276 10250
21524 9 tri 10303 10297 10276
21525 9 tri 10267 10258 10243
21526 9 tri 10250 10228 10236
21527 9 tri 10236 10258 10250
21528 9 tri 10236 10243 10258
21529 9 tri 10186 10202 10201
21530 9 tri 10243 10236 10225
21531 9 tri 10201 10219 10225
21532 9 tri 10248 10264 10271
21533 9 tri 10267 10253 10278
21534 9 tri 10238 10231 10248
21535 9 tri 10267 10282 10258
21536 9 tri 10289 10309 10282
21537 9 tri 10253 10271 10278
21538 9 tri 10253 10248 10271
21539 9 tri 8435 8436 10187
21540 9 tri 10218 10231 10219
21541 9 tri 10202 10219 10201
21542 9 tri 10202 10218 10219
21543 9 tri 10187 8436 10202
21544 9 tri 10248 8439 10264
21545 9 tri 10219 10231 10238
21546 9 tri 10218 8437 10231
21547 9 tri 10238 10248 10253
21548 9 tri 10231 8438 10248
21549 9 tri 10302 10322 10315
21550 9 tri 10264 10283 10271
21551 9 tri 8440 8441 10283
21552 9 tri 10283 10302 10293
21553 9 tri 8441 8442 10302
21554 9 tri 10293 10315 10305
21555 9 tri 10322 10338 10315
21556 9 tri 10302 8442 10322
21557 9 tri 8444 10338 8443
21558 9 tri 10218 10202 8436
21559 9 tri 10231 8437 8438
21560 9 tri 10218 8436 8437
21561 9 tri 10466 8450 8451
21562 9 tri 10466 10444 8450
21563 9 tri 8453 10526 10509
21564 9 tri 10604 10585 10580
21565 9 tri 8458 8459 10675
21566 9 tri 10756 6829 6830
21567 9 tri 10675 10636 8458
21568 9 tri 10549 10526 8454
21569 9 tri 8453 10509 8452
21570 9 tri 10526 10500 10509
21571 9 tri 10580 10561 10549
21572 9 tri 10558 10531 10536
21573 9 tri 10604 10607 10585
21574 9 tri 10636 10675 10673
21575 9 tri 8456 10604 10580
21576 9 tri 10768 10775 6832
21577 9 tri 10526 10518 10500
21578 9 tri 10526 10561 10536
21579 9 tri 10518 10536 10531
21580 9 tri 10518 10526 10536
21581 9 tri 10483 10505 10481
21582 9 tri 10518 10531 10505
21583 9 tri 10562 10545 10531
21584 9 tri 10520 10497 10487
21585 9 tri 10531 10545 10511
21586 9 tri 10557 10533 10520
21587 9 tri 10583 10545 10562
21588 9 tri 10557 10520 10545
21589 9 tri 10557 10583 10591
21590 9 tri 10562 10558 10587
21591 9 tri 10561 10558 10536
21592 9 tri 10585 10587 10558
21593 9 tri 10607 10587 10585
21594 9 tri 10583 10562 10587
21595 9 tri 10615 10613 10643
21596 9 tri 10613 10587 10607
21597 9 tri 10650 10615 10643
21598 9 tri 10615 10587 10613
21599 9 tri 10583 10615 10622
21600 9 tri 10583 10587 10615
21601 9 tri 10622 10650 10652
21602 9 tri 10768 10726 10775
21603 9 tri 10652 10686 10698
21604 9 tri 10650 10684 10686
21605 9 tri 10643 10684 10650
21606 9 tri 10643 10682 10684
21607 9 tri 10730 10721 10772
21608 9 tri 10684 10726 10721
21609 9 tri 10613 10635 10643
21610 9 tri 10673 10713 10724
21611 9 tri 10635 10607 10604
21612 9 tri 10635 10613 10607
21613 9 tri 10673 10635 10636
21614 9 tri 10682 10643 10635
21615 9 tri 8457 10604 8456
21616 9 tri 8457 10636 10604
21617 9 tri 10604 10636 10635
21618 9 tri 8457 8458 10636
21619 9 tri 8459 10713 10675
21620 9 tri 10682 10635 10673
21621 9 tri 10675 10713 10673
21622 9 tri 8459 8460 10713
21623 9 tri 10673 10724 10682
21624 9 tri 10756 8460 6829
21625 9 tri 10724 10776 10775
21626 9 tri 10724 10713 10776
21627 9 tri 10776 6831 10775
21628 9 tri 10682 10726 10684
21629 9 tri 10682 10724 10726
21630 9 tri 10775 6831 6832
21631 9 tri 10776 6830 6831
21632 9 tri 10726 10768 10721
21633 9 tri 10737 10730 10780
21634 9 tri 10686 10721 10730
21635 9 tri 10768 10772 10721
21636 9 tri 10768 6832 6833
21637 9 tri 10772 10768 6833
21638 9 tri 6834 10772 6833
21639 9 tri 10776 10756 6830
21640 9 tri 10713 10756 10776
21641 9 tri 10713 8460 10756
